
$comment
	potential surface scanner
$end

$rem
   JOBTYPE  PES_SCAN
   UNRESTRICTED TRUE
   SYM_IGNORE  TRUE
   GEOM_OPT_MAX_CYCLES 400
   SCF_MAX_CYCLES 400
   METHOD   B3LYP
   BASIS   6-31G**
   PDB_PRINT 2
   SCF_CONVERGENCE 6
   THRESH 14
   SCF_PRINT 1
$end
$molecule
0 3
Cl -0.406111 1.770696 1.158337
Cl 1.466251 1.389903 -0.727433
C -0.732341 -0.538201 -0.391684
C 0.164938 -0.229561 -1.432932
C -0.439747 -1.551351 0.658738
H -1.714785 -0.080382 -0.405420
H 0.986333 -0.913905 -1.620146
H -0.211879 0.296192 -2.302919
H -0.805774 -1.222291 1.634577
H -0.956733 -2.493252 0.419534
H 0.630149 -1.762447 0.734149
$end
$scan
stre 1 3 2.700000 2.701000 0.100000
$end
