
$comment
	potential surface scanner
$end

$rem
   JOBTYPE  PES_SCAN
   UNRESTRICTED TRUE
   SYM_IGNORE  TRUE
   GEOM_OPT_MAX_CYCLES 400
   SCF_MAX_CYCLES 400
   METHOD   B3LYP
   BASIS   6-31G**
   PDB_PRINT 2
   SCF_CONVERGENCE 6
   THRESH 14
   SCF_PRINT 1
$end
$molecule
0 3
Cl 1.311569 3.526780 -1.522748
Cl 0.636082 1.420901 0.324361
C -0.945532 -0.913639 -0.030039
C -0.332992 0.134581 -0.821230
C -0.200060 -2.110730 0.441647
H -1.934417 -0.724029 0.380174
H 0.472049 -0.192048 -1.476744
H -1.027434 0.801989 -1.325139
H 0.219738 -1.935133 1.445474
H -0.856209 -2.983352 0.526526
H 0.637506 -2.359919 -0.217483
$end
$scan
stre 1 3 5.100000 5.101000 0.100000
$end
