
$comment
	potential surface scanner
$end

$rem
   JOBTYPE  PES_SCAN
   UNRESTRICTED TRUE
   SYM_IGNORE  TRUE
   GEOM_OPT_MAX_CYCLES 400
   SCF_MAX_CYCLES 400
   METHOD   B3LYP
   BASIS   6-31G**
   PDB_PRINT 2
   SCF_CONVERGENCE 6
   THRESH 14
   SCF_PRINT 1
$end
$molecule
0 3
Cl -0.745414 2.973412 0.137644
Cl 1.360961 1.229136 -0.220081
C -0.717587 -0.701241 -0.293812
C 0.205860 -0.094424 -1.206885
C -0.374028 -1.871987 0.556758
H -1.643910 -0.168898 -0.094529
H 0.983262 -0.744462 -1.604207
H -0.222720 0.571081 -1.950388
H -0.127640 -1.543750 1.578528
H -1.224613 -2.556856 0.651401
H 0.486126 -2.426612 0.170373
$end
$scan
stre 1 3 3.600000 3.601000 0.100000
$end
