
$comment
	potential surface scanner
$end

$rem
   JOBTYPE  PES_SCAN
   UNRESTRICTED TRUE
   SYM_IGNORE  TRUE
   GEOM_OPT_MAX_CYCLES 400
   SCF_MAX_CYCLES 400
   METHOD   B3LYP
   BASIS   6-31G**
   PDB_PRINT 2
   SCF_CONVERGENCE 6
   THRESH 14
   SCF_PRINT 1
$end
$molecule
0 3
Cl 1.405993 3.587554 -1.489692
Cl 0.607879 1.420492 0.290991
C -0.956124 -0.926659 -0.029456
C -0.357146 0.126107 -0.830693
C -0.192359 -2.110028 0.448078
H -1.942485 -0.742682 0.389267
H 0.439862 -0.202690 -1.495372
H -1.065379 0.778232 -1.336123
H 0.234390 -1.919140 1.446217
H -0.836888 -2.989752 0.547304
H 0.642557 -2.356034 -0.215722
$end
$scan
stre 1 3 5.200000 5.201000 0.100000
$end
