
$comment
	potential surface scanner
$end

$rem
   JOBTYPE  PES_SCAN
   UNRESTRICTED TRUE
   SYM_IGNORE  TRUE
   GEOM_OPT_MAX_CYCLES 400
   SCF_MAX_CYCLES 400
   METHOD   B3LYP
   BASIS   6-31G**
   PDB_PRINT 2
   SCF_CONVERGENCE 6
   THRESH 14
   SCF_PRINT 1
$end
$molecule
0 3
Cl -0.560105 3.259116 -0.424036
Cl 1.292566 1.255751 -0.036012
C -0.729527 -0.730851 -0.197170
C 0.150215 -0.036465 -1.089264
C -0.353627 -1.977906 0.520851
H -1.655358 -0.233510 0.080916
H 0.931475 -0.633044 -1.555873
H -0.314498 0.680092 -1.760091
H -0.101018 -1.760444 1.570208
H -1.190489 -2.685814 0.548323
H 0.510662 -2.471524 0.066951
$end
$scan
stre 1 3 3.900000 3.901000 0.100000
$end
