
$comment
	potential surface scanner
$end

$rem
   JOBTYPE  PES_SCAN
   UNRESTRICTED TRUE
   SYM_IGNORE  TRUE
   GEOM_OPT_MAX_CYCLES 400
   SCF_MAX_CYCLES 400
   METHOD   B3LYP
   BASIS   6-31G**
   PDB_PRINT 2
   SCF_CONVERGENCE 6
   THRESH 14
   SCF_PRINT 1
$end
$molecule
0 3
Cl -0.605598 1.906557 1.174597
Cl 1.362705 1.402828 -0.616586
C -0.719051 -0.613764 -0.448705
C 0.225900 -0.208113 -1.420931
C -0.425580 -1.595111 0.627406
H -1.696825 -0.144558 -0.457917
H 1.071106 -0.865307 -1.604888
H -0.143192 0.314252 -2.297053
H -0.418812 -1.084714 1.599493
H -1.211077 -2.359571 0.679871
H 0.540724 -2.087097 0.489513
$end
$scan
stre 1 3 2.900000 2.901000 0.100000
$end
