
$comment
	potential surface scanner
$end

$rem
   JOBTYPE  PES_SCAN
   UNRESTRICTED TRUE
   SYM_IGNORE  TRUE
   GEOM_OPT_MAX_CYCLES 400
   SCF_MAX_CYCLES 400
   METHOD   B3LYP
   BASIS   6-31G**
   PDB_PRINT 2
   SCF_CONVERGENCE 6
   THRESH 14
   SCF_PRINT 1
$end
$molecule
0 1
Cl -1.402488 1.632149 0.270699
Cl 1.968140 -0.001280 0.602278
C -0.551677 -0.341266 -0.548906
C 0.887525 -0.044264 -0.838191
C -0.941190 -1.372562 0.455785
H -1.150269 -0.313319 -1.457677
H 1.264869 -0.846901 -1.485448
H 0.991778 0.905564 -1.359729
H -0.478044 -1.182165 1.424407
H -2.024509 -1.421019 0.567087
H -0.583835 -2.349535 0.094492
$end
$scan
stre 1 3 2.400000 2.401000 0.100000
$end
