
$comment
	potential surface scanner
$end

$rem
   JOBTYPE  PES_SCAN
   UNRESTRICTED TRUE
   SYM_IGNORE  TRUE
   GEOM_OPT_MAX_CYCLES 400
   SCF_MAX_CYCLES 400
   METHOD   B3LYP
   BASIS   6-31G**
   PDB_PRINT 2
   SCF_CONVERGENCE 6
   THRESH 14
   SCF_PRINT 1
$end
$molecule
0 3
Cl 1.094207 3.306750 -1.592096
Cl 0.684496 1.413431 0.414339
C -0.922522 -0.879770 -0.037795
C -0.280567 0.166432 -0.796687
C -0.211331 -2.102245 0.421833
H -1.914880 -0.679743 0.359185
H 0.540397 -0.151052 -1.436109
H -0.946107 0.865942 -1.294770
H 0.186180 -1.959130 1.439761
H -0.886431 -2.963185 0.470231
H 0.636857 -2.352031 -0.223093
$end
$scan
stre 1 3 4.800000 4.801000 0.100000
$end
