
$comment
	potential surface scanner
$end

$rem
   JOBTYPE  PES_SCAN
   UNRESTRICTED TRUE
   SYM_IGNORE  TRUE
   GEOM_OPT_MAX_CYCLES 400
   SCF_MAX_CYCLES 400
   METHOD   B3LYP
   BASIS   6-31G**
   PDB_PRINT 2
   SCF_CONVERGENCE 6
   THRESH 14
   SCF_PRINT 1
$end
$molecule
0 3
Cl -0.431824 1.484698 0.423417
Cl 2.308525 1.254202 0.365381
C -0.848472 -0.426240 -0.341253
C -0.263356 -0.400732 -1.643449
C -0.305976 -1.384239 0.689157
H -1.930454 -0.304243 -0.323192
H 0.766778 -0.708754 -1.786292
H -0.782702 0.061294 -2.475479
H -0.706998 -1.169324 1.680948
H -0.609695 -2.400188 0.407156
H 0.784476 -1.341078 0.728409
$end
$scan
stre 1 3 2.000000 2.001000 0.100000
$end
