
$comment
	potential surface scanner
$end

$rem
   JOBTYPE  PES_SCAN
   UNRESTRICTED TRUE
   SYM_IGNORE  TRUE
   GEOM_OPT_MAX_CYCLES 400
   SCF_MAX_CYCLES 400
   METHOD   B3LYP
   BASIS   6-31G**
   PDB_PRINT 2
   SCF_CONVERGENCE 6
   THRESH 14
   SCF_PRINT 1
$end
$molecule
0 3
Cl -0.653220 3.165248 -0.047642
Cl 1.321123 1.231036 -0.153045
C -0.728890 -0.727788 -0.267966
C 0.181397 -0.078886 -1.166771
C -0.363436 -1.917742 0.546103
H -1.663377 -0.217617 -0.048707
H 0.964720 -0.706893 -1.587342
H -0.261195 0.601167 -1.888932
H -0.124777 -1.618264 1.578538
H -1.200062 -2.622511 0.617054
H 0.508014 -2.442350 0.143513
$end
$scan
stre 1 3 3.800000 3.801000 0.100000
$end
