
$comment
	potential surface scanner
$end

$rem
   JOBTYPE  PES_SCAN
   UNRESTRICTED TRUE
   SYM_IGNORE  TRUE
   GEOM_OPT_MAX_CYCLES 400
   SCF_MAX_CYCLES 400
   METHOD   B3LYP
   BASIS   6-31G**
   PDB_PRINT 2
   SCF_CONVERGENCE 6
   THRESH 14
   SCF_PRINT 1
$end
$molecule
0 3
Cl -0.647614 2.091905 1.176000
Cl 1.338191 1.353216 -0.566482
C -0.722342 -0.652696 -0.467649
C 0.240146 -0.197057 -1.411107
C -0.419773 -1.625039 0.613743
H -1.694015 -0.169147 -0.460242
H 1.076730 -0.859015 -1.620943
H -0.135488 0.332127 -2.281076
H -0.349642 -1.096296 1.575347
H -1.228241 -2.358216 0.720026
H 0.522348 -2.154381 0.447183
$end
$scan
stre 1 3 3.100000 3.101000 0.100000
$end
