
$comment
	potential surface scanner
$end

$rem
   JOBTYPE  PES_SCAN
   UNRESTRICTED TRUE
   SYM_IGNORE  TRUE
   GEOM_OPT_MAX_CYCLES 400
   SCF_MAX_CYCLES 400
   METHOD   B3LYP
   BASIS   6-31G**
   PDB_PRINT 2
   SCF_CONVERGENCE 6
   THRESH 14
   SCF_PRINT 1
$end
$molecule
0 3
Cl -0.294967 1.558104 1.030037
Cl 1.662805 1.581862 -0.794389
C -0.749609 -0.486916 -0.334219
C 0.080342 -0.285374 -1.441100
C -0.463610 -1.537502 0.690374
H -1.761349 -0.098614 -0.388566
H 0.961987 -0.899144 -1.580135
H -0.257647 0.300072 -2.286330
H -0.945502 -1.312865 1.643129
H -0.862571 -2.498400 0.333380
H 0.610423 -1.655824 0.852622
$end
$scan
stre 1 3 2.400000 2.401000 0.100000
$end
