
$comment
	potential surface scanner
$end

$rem
   JOBTYPE  PES_SCAN
   UNRESTRICTED TRUE
   SYM_IGNORE  TRUE
   GEOM_OPT_MAX_CYCLES 400
   SCF_MAX_CYCLES 400
   METHOD   B3LYP
   BASIS   6-31G**
   PDB_PRINT 2
   SCF_CONVERGENCE 6
   THRESH 14
   SCF_PRINT 1
$end
$molecule
0 3
Cl -0.333963 1.622566 1.097828
Cl 1.564031 1.471856 -0.770777
C -0.739133 -0.494939 -0.355449
C 0.117604 -0.257983 -1.438327
C -0.451133 -1.531635 0.678298
H -1.740238 -0.080788 -0.397686
H 0.963925 -0.915798 -1.599436
H -0.240685 0.294108 -2.298297
H -0.907317 -1.279714 1.637112
H -0.876490 -2.492579 0.351297
H 0.623701 -1.669694 0.820239
$end
$scan
stre 1 3 2.500000 2.501000 0.100000
$end
