
$comment
	potential surface scanner
$end

$rem
   JOBTYPE  PES_SCAN
   UNRESTRICTED TRUE
   SYM_IGNORE  TRUE
   GEOM_OPT_MAX_CYCLES 400
   SCF_MAX_CYCLES 400
   METHOD   B3LYP
   BASIS   6-31G**
   PDB_PRINT 2
   SCF_CONVERGENCE 6
   THRESH 14
   SCF_PRINT 1
$end
$molecule
0 3
Cl -0.332557 3.465553 -0.685521
Cl 1.186543 1.268340 0.080946
C -0.762082 -0.782798 -0.178543
C 0.096066 -0.006549 -1.028579
C -0.331273 -2.030658 0.506014
H -1.714796 -0.343112 0.106908
H 0.896671 -0.551023 -1.525551
H -0.392899 0.722238 -1.669779
H -0.062559 -1.823447 1.553929
H -1.143079 -2.766402 0.537841
H 0.540261 -2.486740 0.027137
$end
$scan
stre 1 3 4.200000 4.201000 0.100000
$end
