
$comment
	potential surface scanner
$end

$rem
   JOBTYPE  PES_SCAN
   UNRESTRICTED TRUE
   SYM_IGNORE  TRUE
   GEOM_OPT_MAX_CYCLES 400
   SCF_MAX_CYCLES 400
   METHOD   B3LYP
   BASIS   6-31G**
   PDB_PRINT 2
   SCF_CONVERGENCE 6
   THRESH 14
   SCF_PRINT 1
$end
$molecule
0 3
Cl -0.484841 3.329997 -0.529803
Cl 1.264606 1.258175 0.006351
C -0.739598 -0.747693 -0.186943
C 0.131903 -0.023569 -1.064756
C -0.346098 -1.997972 0.515584
H -1.676574 -0.272256 0.092404
H 0.917145 -0.601839 -1.547558
H -0.343373 0.701526 -1.719108
H -0.089794 -1.788382 1.565765
H -1.174674 -2.715489 0.540239
H 0.521594 -2.477096 0.052629
$end
$scan
stre 1 3 4.000000 4.001000 0.100000
$end
