
$comment
	potential surface scanner
$end

$rem
   JOBTYPE  PES_SCAN
   UNRESTRICTED TRUE
   SYM_IGNORE  TRUE
   GEOM_OPT_MAX_CYCLES 400
   SCF_MAX_CYCLES 400
   METHOD   B3LYP
   BASIS   6-31G**
   PDB_PRINT 2
   SCF_CONVERGENCE 6
   THRESH 14
   SCF_PRINT 1
$end
$molecule
0 3
Cl -0.783873 2.876970 0.199162
Cl 1.381166 1.228325 -0.242494
C -0.712696 -0.687307 -0.301703
C 0.214854 -0.098410 -1.220869
C -0.378337 -1.852357 0.560251
H -1.635759 -0.147314 -0.109142
H 0.988523 -0.757102 -1.610931
H -0.207237 0.564978 -1.969709
H -0.125716 -1.515160 1.577547
H -1.235701 -2.527180 0.664848
H 0.475074 -2.420044 0.177841
$end
$scan
stre 1 3 3.500000 3.501000 0.100000
$end
