
$comment
	potential surface scanner
$end

$rem
   JOBTYPE  PES_SCAN
   UNRESTRICTED TRUE
   SYM_IGNORE  TRUE
   GEOM_OPT_MAX_CYCLES 400
   SCF_MAX_CYCLES 400
   METHOD   B3LYP
   BASIS   6-31G**
   PDB_PRINT 2
   SCF_CONVERGENCE 6
   THRESH 14
   SCF_PRINT 1
$end
$molecule
0 3
Cl 0.972127 2.761915 -1.770265
Cl 0.714355 1.457231 0.568635
C -0.892303 -0.815525 -0.013614
C -0.299814 0.223459 -0.762778
C -0.187747 -2.064934 0.379397
H -1.881110 -0.642113 0.406506
H 0.543764 -0.027765 -1.398344
H -0.958173 0.972231 -1.187341
H 0.028174 -2.062871 1.458266
H -0.817719 -2.944622 0.197211
H 0.758742 -2.191603 -0.152873
$end
$scan
stre 1 3 4.300000 4.301000 0.100000
$end
