
$comment
	potential surface scanner
$end

$rem
   JOBTYPE  PES_SCAN
   UNRESTRICTED TRUE
   SYM_IGNORE  TRUE
   GEOM_OPT_MAX_CYCLES 400
   SCF_MAX_CYCLES 400
   METHOD   B3LYP
   BASIS   6-31G**
   PDB_PRINT 2
   SCF_CONVERGENCE 6
   THRESH 14
   SCF_PRINT 1
$end
$molecule
0 3
Cl 1.242750 3.447203 -1.558317
Cl 0.647094 1.417791 0.362015
C -0.938590 -0.902976 -0.032637
C -0.315071 0.149309 -0.808368
C -0.203279 -2.108485 0.433854
H -1.929539 -0.712337 0.372154
H 0.495175 -0.172586 -1.459752
H -1.000404 0.826611 -1.311392
H 0.208255 -1.945100 1.443153
H -0.864887 -2.978267 0.504295
H 0.638795 -2.355762 -0.220206
$end
$scan
stre 1 3 5.000000 5.001000 0.100000
$end
