
$comment
	potential surface scanner
$end

$rem
   JOBTYPE  PES_SCAN
   UNRESTRICTED TRUE
   SYM_IGNORE  TRUE
   GEOM_OPT_MAX_CYCLES 400
   SCF_MAX_CYCLES 400
   METHOD   B3LYP
   BASIS   6-31G**
   PDB_PRINT 2
   SCF_CONVERGENCE 6
   THRESH 14
   SCF_PRINT 1
$end
$molecule
0 3
Cl 1.036941 3.222645 -1.616500
Cl 0.695743 1.413285 0.444917
C -0.915929 -0.868859 -0.039828
C -0.269128 0.177467 -0.788447
C -0.212613 -2.097894 0.414537
H -1.910068 -0.668981 0.352899
H 0.557387 -0.133189 -1.423750
H -0.927087 0.887755 -1.280541
H 0.174447 -1.965941 1.437943
H -0.890693 -2.957267 0.447817
H 0.641297 -2.343622 -0.224246
$end
$scan
stre 1 3 4.700000 4.701000 0.100000
$end
