
$comment
	potential surface scanner
$end

$rem
   JOBTYPE  PES_SCAN
   UNRESTRICTED TRUE
   SYM_IGNORE  TRUE
   GEOM_OPT_MAX_CYCLES 400
   SCF_MAX_CYCLES 400
   METHOD   B3LYP
   BASIS   6-31G**
   PDB_PRINT 2
   SCF_CONVERGENCE 6
   THRESH 14
   SCF_PRINT 1
$end
$molecule
0 3
Cl -0.624172 1.992756 1.183757
Cl 1.345240 1.381772 -0.595569
C -0.720353 -0.633882 -0.459875
C 0.234190 -0.203667 -1.417447
C -0.423376 -1.609015 0.620527
H -1.693546 -0.154201 -0.459560
H 1.076070 -0.862756 -1.612331
H -0.137931 0.319693 -2.292070
H -0.386049 -1.087360 1.586910
H -1.220986 -2.357858 0.700597
H 0.531213 -2.120082 0.469861
$end
$scan
stre 1 3 3.000000 3.001000 0.100000
$end
