
$comment
	potential surface scanner
$end

$rem
   JOBTYPE  PES_SCAN
   UNRESTRICTED TRUE
   SYM_IGNORE  TRUE
   GEOM_OPT_MAX_CYCLES 400
   SCF_MAX_CYCLES 400
   METHOD   B3LYP
   BASIS   6-31G**
   PDB_PRINT 2
   SCF_CONVERGENCE 6
   THRESH 14
   SCF_PRINT 1
$end
$molecule
0 3
Cl -1.635705 2.005074 0.263268
Cl 2.037208 -0.276244 0.546967
C -0.481663 -0.507664 -0.610993
C 0.918024 -0.085541 -0.843423
C -0.927070 -1.398423 0.469783
H -1.130740 -0.362124 -1.471800
H 1.317302 -0.700668 -1.664879
H 0.939948 0.956430 -1.166613
H -0.487232 -1.118601 1.429126
H -2.013700 -1.432836 0.537357
H -0.556072 -2.414004 0.236004
$end
$scan
stre 1 3 5.400000 5.401000 0.100000
$end
