
$comment
	potential surface scanner
$end

$rem
   JOBTYPE  PES_SCAN
   UNRESTRICTED TRUE
   SYM_IGNORE  TRUE
   GEOM_OPT_MAX_CYCLES 400
   SCF_MAX_CYCLES 400
   METHOD   B3LYP
   BASIS   6-31G**
   PDB_PRINT 2
   SCF_CONVERGENCE 6
   THRESH 14
   SCF_PRINT 1
$end
$molecule
0 3
Cl -0.651098 2.195268 1.164675
Cl 1.331970 1.327698 -0.544556
C -0.725239 -0.669442 -0.471766
C 0.242542 -0.191338 -1.404082
C -0.417226 -1.641872 0.608193
H -1.695429 -0.181754 -0.456255
H 1.073259 -0.856386 -1.629327
H -0.137434 0.342590 -2.269619
H -0.343276 -1.113210 1.570158
H -1.223306 -2.376851 0.718791
H 0.525537 -2.169302 0.438590
$end
$scan
stre 1 3 3.200000 3.201000 0.100000
$end
