
$comment
	potential surface scanner
$end

$rem
   JOBTYPE  PES_SCAN
   UNRESTRICTED TRUE
   SYM_IGNORE  TRUE
   GEOM_OPT_MAX_CYCLES 400
   SCF_MAX_CYCLES 400
   METHOD   B3LYP
   BASIS   6-31G**
   PDB_PRINT 2
   SCF_CONVERGENCE 6
   THRESH 14
   SCF_PRINT 1
$end
$molecule
0 3
Cl -0.440698 1.435976 0.422046
Cl 2.316498 1.271156 0.359452
C -0.836282 -0.379171 -0.318735
C -0.262765 -0.405594 -1.644737
C -0.307763 -1.375687 0.690449
H -1.923688 -0.297644 -0.317444
H 0.764934 -0.721772 -1.786563
H -0.785204 0.043858 -2.481605
H -0.714328 -1.186253 1.685596
H -0.613122 -2.380846 0.376592
H 0.782722 -1.338627 0.739753
$end
$scan
stre 1 3 1.900000 1.901000 0.100000
$end
