
$comment
	potential surface scanner
$end

$rem
   JOBTYPE  PES_SCAN
   UNRESTRICTED TRUE
   SYM_IGNORE  TRUE
   GEOM_OPT_MAX_CYCLES 400
   SCF_MAX_CYCLES 400
   METHOD   B3LYP
   BASIS   6-31G**
   PDB_PRINT 2
   SCF_CONVERGENCE 6
   THRESH 14
   SCF_PRINT 1
$end
$molecule
0 3
Cl -0.257816 1.509127 0.681443
Cl 2.151330 1.896987 -0.607725
C -0.843488 -0.580267 -0.343945
C -0.059769 -0.348366 -1.463646
C -0.478835 -1.575918 0.712993
H -1.882917 -0.264125 -0.384440
H 0.956189 -0.721981 -1.523636
H -0.409826 0.282181 -2.272627
H -0.895900 -1.297626 1.682587
H -0.902639 -2.551429 0.437453
H 0.603973 -1.683185 0.806346
$end
$scan
stre 1 3 2.300000 2.301000 0.100000
$end
