
$comment
	potential surface scanner
$end

$rem
   JOBTYPE  PES_SCAN
   UNRESTRICTED TRUE
   SYM_IGNORE  TRUE
   GEOM_OPT_MAX_CYCLES 400
   SCF_MAX_CYCLES 400
   METHOD   B3LYP
   BASIS   6-31G**
   PDB_PRINT 2
   SCF_CONVERGENCE 6
   THRESH 14
   SCF_PRINT 1
$end
$molecule
0 1
Cl -1.469306 1.750580 0.281509
Cl 1.982297 -0.067533 0.592054
C -0.527349 -0.401603 -0.573374
C 0.896996 -0.056090 -0.841898
C -0.937246 -1.381977 0.460172
H -1.148480 -0.324678 -1.463033
H 1.288148 -0.814185 -1.536103
H 0.974297 0.920421 -1.317393
H -0.483930 -1.160005 1.426917
H -2.021947 -1.425956 0.554340
H -0.573179 -2.373573 0.141606
$end
$scan
stre 1 3 2.600000 2.601000 0.100000
$end
