
$comment
	potential surface scanner
$end

$rem
   JOBTYPE  PES_SCAN
   UNRESTRICTED TRUE
   SYM_IGNORE  TRUE
   GEOM_OPT_MAX_CYCLES 400
   SCF_MAX_CYCLES 400
   METHOD   B3LYP
   BASIS   6-31G**
   PDB_PRINT 2
   SCF_CONVERGENCE 6
   THRESH 14
   SCF_PRINT 1
$end
$molecule
0 3
Cl 1.159576 3.384064 -1.571292
Cl 0.670917 1.414672 0.386072
C -0.929870 -0.890940 -0.035532
C -0.295759 0.155409 -0.804579
C -0.208691 -2.105873 0.428471
H -1.920959 -0.693325 0.365677
H 0.520306 -0.165973 -1.448531
H -0.968947 0.845958 -1.305450
H 0.196767 -1.951971 1.441697
H -0.878666 -2.969953 0.489489
H 0.635625 -2.356667 -0.221223
$end
$scan
stre 1 3 4.900000 4.901000 0.100000
$end
