
$comment
	potential surface scanner
$end

$rem
   JOBTYPE  PES_SCAN
   UNRESTRICTED TRUE
   SYM_IGNORE  TRUE
   GEOM_OPT_MAX_CYCLES 400
   SCF_MAX_CYCLES 400
   METHOD   B3LYP
   BASIS   6-31G**
   PDB_PRINT 2
   SCF_CONVERGENCE 6
   THRESH 14
   SCF_PRINT 1
$end
$molecule
0 3
Cl -0.703153 3.068519 0.066600
Cl 1.341186 1.229942 -0.193299
C -0.722782 -0.715158 -0.284690
C 0.195232 -0.089487 -1.191428
C -0.369244 -1.892289 0.552875
H -1.653468 -0.192836 -0.078572
H 0.976501 -0.729424 -1.597560
H -0.239932 0.580589 -1.927214
H -0.128521 -1.574090 1.579176
H -1.212899 -2.587069 0.637179
H 0.497377 -2.433297 0.161737
$end
$scan
stre 1 3 3.700000 3.701000 0.100000
$end
