
$comment
	potential surface scanner
$end

$rem
   JOBTYPE  PES_SCAN
   UNRESTRICTED TRUE
   SYM_IGNORE  TRUE
   GEOM_OPT_MAX_CYCLES 400
   SCF_MAX_CYCLES 400
   METHOD   B3LYP
   BASIS   6-31G**
   PDB_PRINT 2
   SCF_CONVERGENCE 6
   THRESH 14
   SCF_PRINT 1
$end
$molecule
0 3
Cl -0.412513 3.398896 -0.606073
Cl 1.230732 1.258499 0.045146
C -0.751050 -0.766172 -0.184644
C 0.114515 -0.015251 -1.047355
C -0.338719 -2.013786 0.511608
H -1.698115 -0.310458 0.093937
H 0.906144 -0.576240 -1.540164
H -0.367101 0.715271 -1.691408
H -0.074596 -1.802386 1.559685
H -1.159310 -2.739871 0.543026
H 0.530309 -2.483100 0.041044
$end
$scan
stre 1 3 4.100000 4.101000 0.100000
$end
