
$comment
	potential surface scanner
$end

$rem
   JOBTYPE  PES_SCAN
   UNRESTRICTED TRUE
   SYM_IGNORE  TRUE
   GEOM_OPT_MAX_CYCLES 400
   SCF_MAX_CYCLES 400
   METHOD   B3LYP
   BASIS   6-31G**
   PDB_PRINT 2
   SCF_CONVERGENCE 6
   THRESH 14
   SCF_PRINT 1
$end
$molecule
0 3
Cl -0.358481 1.690994 1.139920
Cl 1.508650 1.412098 -0.755000
C -0.736419 -0.512715 -0.373630
C 0.141217 -0.242142 -1.436914
C -0.445471 -1.536634 0.669009
H -1.725661 -0.070430 -0.398800
H 0.967630 -0.921910 -1.614767
H -0.229493 0.293123 -2.303050
H -0.881784 -1.260149 1.630885
H -0.889471 -2.498686 0.370391
H 0.629586 -1.688148 0.796759
$end
$scan
stre 1 3 2.600000 2.601000 0.100000
$end
