
$comment
	potential surface scanner
$end

$rem
   JOBTYPE  PES_SCAN
   UNRESTRICTED TRUE
   SYM_IGNORE  TRUE
   GEOM_OPT_MAX_CYCLES 400
   SCF_MAX_CYCLES 400
   METHOD   B3LYP
   BASIS   6-31G**
   PDB_PRINT 2
   SCF_CONVERGENCE 6
   THRESH 14
   SCF_PRINT 1
$end
$molecule
0 3
Cl -0.815008 2.772056 0.284511
Cl 1.400790 1.229258 -0.270801
C -0.708959 -0.674654 -0.314609
C 0.222560 -0.105148 -1.239808
C -0.382730 -1.828384 0.565305
H -1.632460 -0.131571 -0.135196
H 0.994762 -0.771568 -1.619183
H -0.191932 0.554657 -1.995800
H -0.129648 -1.476126 1.577320
H -1.244791 -2.495577 0.679391
H 0.467715 -2.407543 0.193672
$end
$scan
stre 1 3 3.400000 3.401000 0.100000
$end
