
$comment
	potential surface scanner
$end

$rem
   JOBTYPE  PES_SCAN
   UNRESTRICTED TRUE
   SYM_IGNORE  TRUE
   GEOM_OPT_MAX_CYCLES 400
   SCF_MAX_CYCLES 400
   METHOD   B3LYP
   BASIS   6-31G**
   PDB_PRINT 2
   SCF_CONVERGENCE 6
   THRESH 14
   SCF_PRINT 1
$end
$molecule
0 3
Cl -0.885528 4.611144 -1.003496
Cl 1.972877 0.350767 -0.253015
C -0.601534 -0.674511 0.064775
C 0.262758 -0.114284 -0.966632
C -0.528496 -2.099747 0.489792
H -1.156363 0.022349 0.688738
H 0.513524 -0.816154 -1.761924
H -0.094126 0.828292 -1.378625
H 0.212393 -2.234893 1.294499
H -1.488597 -2.450189 0.883439
H -0.226607 -2.757373 -0.332753
$end
$scan
stre 1 3 5.300000 5.301000 0.100000
$end
