
$comment
	potential surface scanner
$end

$rem
   JOBTYPE  PES_SCAN
   UNRESTRICTED TRUE
   SYM_IGNORE  TRUE
   GEOM_OPT_MAX_CYCLES 400
   SCF_MAX_CYCLES 400
   METHOD   B3LYP
   BASIS   6-31G**
   PDB_PRINT 2
   SCF_CONVERGENCE 6
   THRESH 14
   SCF_PRINT 1
$end
$molecule
0 1
Cl -1.343049 1.520545 0.254672
Cl 1.957884 0.059474 0.609462
C -0.578001 -0.274889 -0.520646
C 0.877095 -0.035549 -0.832907
C -0.943734 -1.363023 0.449535
H -1.149278 -0.300797 -1.448880
H 1.236495 -0.878885 -1.433206
H 1.009155 0.885722 -1.398012
H -0.471201 -1.204390 1.419659
H -2.025285 -1.420505 0.578322
H -0.589781 -2.322301 0.046799
$end
$scan
stre 1 3 2.200000 2.201000 0.100000
$end
