
$comment
	potential surface scanner
$end

$rem
   JOBTYPE  PES_SCAN
   UNRESTRICTED TRUE
   SYM_IGNORE  TRUE
   GEOM_OPT_MAX_CYCLES 400
   SCF_MAX_CYCLES 400
   METHOD   B3LYP
   BASIS   6-31G**
   PDB_PRINT 2
   SCF_CONVERGENCE 6
   THRESH 14
   SCF_PRINT 1
$end
$molecule
0 1
Cl -1.264515 1.361852 0.218903
Cl 1.954561 0.120734 0.611268
C -0.619279 -0.169678 -0.472535
C 0.858682 -0.026770 -0.823004
C -0.945574 -1.345456 0.440094
H -1.140005 -0.286404 -1.429177
H 1.182448 -0.916590 -1.368365
H 1.029472 0.856750 -1.437857
H -0.471172 -1.223445 1.415645
H -2.025014 -1.431143 0.581265
H -0.579305 -2.274448 -0.011440
$end
$scan
stre 1 3 1.900000 1.901000 0.100000
$end
