
$comment
	potential surface scanner
$end

$rem
   JOBTYPE  PES_SCAN
   UNRESTRICTED TRUE
   SYM_IGNORE  TRUE
   GEOM_OPT_MAX_CYCLES 400
   SCF_MAX_CYCLES 400
   METHOD   B3LYP
   BASIS   6-31G**
   PDB_PRINT 2
   SCF_CONVERGENCE 6
   THRESH 14
   SCF_PRINT 1
$end
$molecule
0 3
Cl -0.817111 2.612011 0.521504
Cl 1.405823 1.234623 -0.337209
C -0.711107 -0.670014 -0.360013
C 0.232287 -0.126442 -1.287591
C -0.390090 -1.777751 0.578139
H -1.644542 -0.132867 -0.221265
H 1.012686 -0.799847 -1.636545
H -0.171747 0.511108 -2.068131
H -0.166193 -1.373282 1.577305
H -1.246268 -2.450373 0.703742
H 0.476562 -2.361765 0.254865
$end
$scan
stre 1 3 3.300000 3.301000 0.100000
$end
