
$comment
	potential surface scanner
$end

$rem
   JOBTYPE  PES_SCAN
   UNRESTRICTED TRUE
   SYM_IGNORE  TRUE
   GEOM_OPT_MAX_CYCLES 400
   SCF_MAX_CYCLES 400
   METHOD   B3LYP
   BASIS   6-31G**
   PDB_PRINT 2
   SCF_CONVERGENCE 6
   THRESH 14
   SCF_PRINT 1
$end
$molecule
0 3
Cl -0.479226 1.843252 1.173202
Cl 1.418574 1.392239 -0.687247
C -0.725506 -0.570646 -0.415018
C 0.192258 -0.219992 -1.429091
C -0.433615 -1.570922 0.645669
H -1.704655 -0.105167 -0.423907
H 1.021447 -0.895178 -1.617780
H -0.185025 0.301111 -2.302135
H -0.667369 -1.161313 1.633829
H -1.068524 -2.459038 0.512139
H 0.611942 -1.888944 0.635140
$end
$scan
stre 1 3 2.800000 2.801000 0.100000
$end
