
$comment
	potential surface scanner
$end

$rem
   JOBTYPE  PES_SCAN
   UNRESTRICTED TRUE
   SYM_IGNORE  TRUE
   GEOM_OPT_MAX_CYCLES 400
   SCF_MAX_CYCLES 400
   METHOD   B3LYP
   BASIS   6-31G**
   PDB_PRINT 2
   SCF_CONVERGENCE 6
   THRESH 14
   SCF_PRINT 1
$end
$molecule
0 3
Cl 1.023099 3.100146 -1.670877
Cl 0.693741 1.424617 0.487813
C -0.912541 -0.858736 -0.036695
C -0.273962 0.195130 -0.772239
C -0.207233 -2.091898 0.403288
H -1.911090 -0.672469 0.351846
H 0.559070 -0.095904 -1.407830
H -0.929390 0.918125 -1.248102
H 0.153677 -1.981435 1.438527
H -0.878241 -2.957675 0.400385
H 0.663167 -2.314501 -0.221315
$end
$scan
stre 1 3 4.600000 4.601000 0.100000
$end
