
$comment
	potential surface scanner
$end

$rem
   JOBTYPE  PES_SCAN
   UNRESTRICTED TRUE
   SYM_IGNORE  TRUE
   GEOM_OPT_MAX_CYCLES 400
   SCF_MAX_CYCLES 400
   METHOD   B3LYP
   BASIS   6-31G**
   PDB_PRINT 2
   SCF_CONVERGENCE 6
   THRESH 14
   SCF_PRINT 1
$end
$molecule
0 1
Cl -1.372022 1.575618 0.263104
Cl 1.962040 0.031427 0.606710
C -0.564658 -0.308744 -0.535234
C 0.882574 -0.039622 -0.835678
C -0.942597 -1.368153 0.452706
H -1.150342 -0.306610 -1.453621
H 1.251935 -0.863499 -1.458509
H 1.000585 0.895763 -1.380014
H -0.473437 -1.194535 1.421690
H -2.024988 -1.419475 0.574035
H -0.588792 -2.336768 0.069609
$end
$scan
stre 1 3 2.300000 2.301000 0.100000
$end
