
$comment
	potential surface scanner
$end

$rem
   JOBTYPE  PES_SCAN
   UNRESTRICTED TRUE
   SYM_IGNORE  TRUE
   GEOM_OPT_MAX_CYCLES 400
   SCF_MAX_CYCLES 400
   METHOD   B3LYP
   BASIS   6-31G**
   PDB_PRINT 2
   SCF_CONVERGENCE 6
   THRESH 14
   SCF_PRINT 1
$end
$molecule
0 1
Cl -1.315412 1.466736 0.244757
Cl 1.955083 0.084641 0.611226
C -0.591644 -0.240196 -0.505271
C 0.871231 -0.032139 -0.829760
C -0.944588 -1.357621 0.446140
H -1.147276 -0.295125 -1.443226
H 1.219674 -0.893328 -1.408835
H 1.016986 0.875258 -1.414123
H -0.469678 -1.212952 1.417580
H -2.025311 -1.422841 0.581262
H -0.588764 -2.307032 0.025047
$end
$scan
stre 1 3 2.100000 2.101000 0.100000
$end
