
$comment
	potential surface scanner
$end

$rem
   JOBTYPE  PES_SCAN
   UNRESTRICTED TRUE
   SYM_IGNORE  TRUE
   GEOM_OPT_MAX_CYCLES 400
   SCF_MAX_CYCLES 400
   METHOD   B3LYP
   BASIS   6-31G**
   PDB_PRINT 2
   SCF_CONVERGENCE 6
   THRESH 14
   SCF_PRINT 1
$end
$molecule
0 1
Cl -1.288247 1.413937 0.235886
Cl 1.953110 0.113740 0.612237
C -0.605295 -0.204327 -0.488543
C 0.865075 -0.029466 -0.825913
C -0.945305 -1.352388 0.441729
H -1.144535 -0.287511 -1.435921
H 1.202269 -0.909753 -1.380526
H 1.023955 0.861350 -1.432591
H -0.467481 -1.223295 1.414308
H -2.025154 -1.425666 0.583025
H -0.588092 -2.291219 0.001106
$end
$scan
stre 1 3 2.000000 2.001000 0.100000
$end
