
$comment
	potential surface scanner
$end

$rem
   JOBTYPE  PES_SCAN
   UNRESTRICTED TRUE
   SYM_IGNORE  TRUE
   GEOM_OPT_MAX_CYCLES 400
   SCF_MAX_CYCLES 400
   METHOD   B3LYP
   BASIS   6-31G**
   PDB_PRINT 2
   SCF_CONVERGENCE 6
   THRESH 14
   SCF_PRINT 1
$end
$molecule
0 3
Cl -0.419896 1.533868 0.415221
Cl 2.307088 1.240474 0.365577
C -0.862638 -0.475736 -0.362900
C -0.263842 -0.393115 -1.638489
C -0.306463 -1.395432 0.687917
H -1.937956 -0.314051 -0.328821
H 0.769405 -0.690929 -1.781209
H -0.779990 0.082155 -2.465147
H -0.704413 -1.156492 1.675256
H -0.604741 -2.422181 0.438425
H 0.783749 -1.343164 0.718974
$end
$scan
stre 1 3 2.100000 2.101000 0.100000
$end
