
$comment
	potential surface scanner
$end

$rem
   JOBTYPE  PES_SCAN
   UNRESTRICTED TRUE
   SYM_IGNORE  TRUE
   GEOM_OPT_MAX_CYCLES 400
   SCF_MAX_CYCLES 400
   METHOD   B3LYP
   BASIS   6-31G**
   PDB_PRINT 2
   SCF_CONVERGENCE 6
   THRESH 14
   SCF_PRINT 1
$end
$molecule
0 3
Cl -0.398317 1.590312 0.375516
Cl 2.312346 1.220523 0.403644
C -0.878356 -0.526753 -0.384484
C -0.272142 -0.385564 -1.635250
C -0.303918 -1.405725 0.685283
H -1.947390 -0.334073 -0.330940
H 0.767727 -0.659447 -1.779445
H -0.792288 0.096319 -2.455677
H -0.693033 -1.139185 1.669187
H -0.600636 -2.442178 0.474283
H 0.786309 -1.348832 0.702687
$end
$scan
stre 1 3 2.200000 2.201000 0.100000
$end
