
$comment
	potential surface scanner
$end

$rem
   JOBTYPE  PES_SCAN
   UNRESTRICTED TRUE
   SYM_IGNORE  TRUE
   GEOM_OPT_MAX_CYCLES 400
   SCF_MAX_CYCLES 400
   METHOD   B3LYP
   BASIS   6-31G**
   PDB_PRINT 2
   SCF_CONVERGENCE 6
   THRESH 14
   SCF_PRINT 1
$end
$molecule
0 3
Cl 0.997104 2.874188 -1.729296
Cl 0.676675 1.448662 0.554539
C -0.902782 -0.834756 -0.031012
C -0.283543 0.220593 -0.756944
C -0.195627 -2.075944 0.383261
H -1.900363 -0.661353 0.366852
H 0.563365 -0.042157 -1.385047
H -0.940513 0.952347 -1.214529
H 0.120613 -2.006242 1.436036
H -0.854782 -2.948985 0.317588
H 0.700148 -2.260952 -0.216647
$end
$scan
stre 1 3 4.400000 4.401000 0.100000
$end
