
$comment
	potential surface scanner
$end

$rem
   JOBTYPE  PES_SCAN
   UNRESTRICTED TRUE
   SYM_IGNORE  TRUE
   GEOM_OPT_MAX_CYCLES 400
   SCF_MAX_CYCLES 400
   METHOD   B3LYP
   BASIS   6-31G**
   PDB_PRINT 2
   SCF_CONVERGENCE 6
   THRESH 14
   SCF_PRINT 1
$end
$molecule
0 1
Cl -1.434805 1.690322 0.277556
Cl 1.974614 -0.033095 0.597574
C -0.539255 -0.372131 -0.561658
C 0.892358 -0.049865 -0.840279
C -0.939399 -1.377272 0.458059
H -1.149776 -0.318745 -1.460707
H 1.277125 -0.831136 -1.510574
H 0.983103 0.913225 -1.339716
H -0.481376 -1.170876 1.425876
H -2.023472 -1.423105 0.560491
H -0.578816 -2.361920 0.118175
$end
$scan
stre 1 3 2.500000 2.501000 0.100000
$end
