
$comment
	potential surface scanner
$end

$rem
   JOBTYPE  PES_SCAN
   UNRESTRICTED TRUE
   SYM_IGNORE  TRUE
   GEOM_OPT_MAX_CYCLES 400
   SCF_MAX_CYCLES 400
   METHOD   B3LYP
   BASIS   6-31G**
   PDB_PRINT 2
   SCF_CONVERGENCE 6
   THRESH 14
   SCF_PRINT 1
$end
$molecule
0 3
Cl 1.014738 2.976490 -1.719234
Cl 0.683225 1.446838 0.522777
C -0.906645 -0.845317 -0.027467
C -0.280993 0.209902 -0.760487
C -0.200825 -2.085519 0.391484
H -1.902968 -0.665781 0.370374
H 0.560340 -0.064936 -1.391579
H -0.937383 0.937972 -1.226225
H 0.123181 -2.009362 1.441559
H -0.862855 -2.957064 0.336453
H 0.690482 -2.277823 -0.212855
$end
$scan
stre 1 3 4.500000 4.501000 0.100000
$end
