
$comment
	potential surface scanner
$end

$rem
   JOBTYPE  PES_SCAN
   UNRESTRICTED TRUE
   SYM_IGNORE  TRUE
   GEOM_OPT_MAX_CYCLES 400
   SCF_MAX_CYCLES 400
   METHOD   B3LYP
   BASIS   6-31G**
   PDB_PRINT 2
   SCF_CONVERGENCE 6
   THRESH 14
   SCF_PRINT 1
$end
$molecule
0 1
H 0.534022 0.162631 0.945132
C -0.001148 -0.000345 -0.001985
H 0.205647 0.827814 -0.682782
H 0.335612 -0.936055 -0.452722
H -1.074233 -0.054145 0.192157
$end
$scan
stre 1 2 1.200000 1.201000 0.100000
$end
