
$comment
	potential surface scanner
$end

$rem
   JOBTYPE  PES_SCAN
   UNRESTRICTED TRUE
   SYM_IGNORE  TRUE
   GEOM_OPT_MAX_CYCLES 400
   SCF_MAX_CYCLES 400
   METHOD   B3LYP
   BASIS   6-31G**
   PDB_PRINT 2
   SCF_CONVERGENCE 6
   THRESH 14
   SCF_PRINT 1
$end
$molecule
0 1
H 0.668939 0.203724 1.183873
C -0.060831 -0.018549 -0.107649
H 0.187093 0.835289 -0.733415
H 0.319312 -0.958803 -0.499427
H -1.114613 -0.061762 0.156419
$end
$scan
stre 1 2 1.600000 1.601000 0.100000
$end
