
$comment
	potential surface scanner
$end

$rem
   JOBTYPE  PES_SCAN
   UNRESTRICTED TRUE
   SYM_IGNORE  TRUE
   GEOM_OPT_MAX_CYCLES 400
   SCF_MAX_CYCLES 400
   METHOD   B3LYP
   BASIS   6-31G**
   PDB_PRINT 2
   SCF_CONVERGENCE 6
   THRESH 14
   SCF_PRINT 1
$end
$molecule
0 1
H 0.933496 0.284313 1.652205
C -0.185409 -0.056499 -0.328173
H 0.150064 0.843263 -0.825329
H 0.285574 -0.995230 -0.585559
H -1.183826 -0.075951 0.086656
$end
$scan
stre 1 2 2.400000 2.401000 0.100000
$end
