
$comment
	potential surface scanner
$end

$rem
   JOBTYPE  PES_SCAN
   UNRESTRICTED TRUE
   SYM_IGNORE  TRUE
   GEOM_OPT_MAX_CYCLES 400
   SCF_MAX_CYCLES 400
   METHOD   B3LYP
   BASIS   6-31G**
   PDB_PRINT 2
   SCF_CONVERGENCE 6
   THRESH 14
   SCF_PRINT 1
$end
$molecule
0 3
H 1.279038 0.394780 2.269518
C -0.322839 -0.099767 -0.572913
H 0.086435 0.829110 -0.947694
H 0.214572 -1.027065 -0.721617
H -1.257308 -0.097158 -0.027494
$end
$scan
stre 1 2 3.200000 3.201000 0.100000
$end
