
$comment
	potential surface scanner
$end

$rem
   JOBTYPE  PES_SCAN
   UNRESTRICTED TRUE
   SYM_IGNORE  TRUE
   GEOM_OPT_MAX_CYCLES 400
   SCF_MAX_CYCLES 400
   METHOD   B3LYP
   BASIS   6-31G**
   PDB_PRINT 2
   SCF_CONVERGENCE 6
   THRESH 14
   SCF_PRINT 1
$end
$molecule
0 1
H 0.635843 0.193637 1.125267
C -0.045291 -0.013823 -0.080144
H 0.191270 0.833218 -0.721431
H 0.322926 -0.953157 -0.488444
H -1.104848 -0.059976 0.164553
$end
$scan
stre 1 2 1.500000 1.501000 0.100000
$end
