
$comment
	potential surface scanner
$end

$rem
   JOBTYPE  PES_SCAN
   UNRESTRICTED TRUE
   SYM_IGNORE  TRUE
   GEOM_OPT_MAX_CYCLES 400
   SCF_MAX_CYCLES 400
   METHOD   B3LYP
   BASIS   6-31G**
   PDB_PRINT 2
   SCF_CONVERGENCE 6
   THRESH 14
   SCF_PRINT 1
$end
$molecule
0 3
H 0.448518 0.947925 1.612520
C -0.110869 -0.234977 -0.399402
H 0.679345 0.503399 -0.417490
H -0.362858 -0.769880 -1.307652
H -0.654239 -0.446566 0.511822
$end
$scan
stre 1 2 2.300000 2.301000 0.100000
$end
