
$comment
	potential surface scanner
$end

$rem
   JOBTYPE  PES_SCAN
   UNRESTRICTED TRUE
   SYM_IGNORE  TRUE
   GEOM_OPT_MAX_CYCLES 400
   SCF_MAX_CYCLES 400
   METHOD   B3LYP
   BASIS   6-31G**
   PDB_PRINT 2
   SCF_CONVERGENCE 6
   THRESH 14
   SCF_PRINT 1
$end
$molecule
0 1
H 0.498850 0.151907 0.882930
C 0.012364 0.003780 0.021890
H 0.211427 0.826734 -0.668654
H 0.340917 -0.930576 -0.439425
H -1.063658 -0.051946 0.203059
$end
$scan
stre 1 2 1.100000 1.101000 0.100000
$end
