
$comment
	potential surface scanner
$end

$rem
   JOBTYPE  PES_SCAN
   UNRESTRICTED TRUE
   SYM_IGNORE  TRUE
   GEOM_OPT_MAX_CYCLES 400
   SCF_MAX_CYCLES 400
   METHOD   B3LYP
   BASIS   6-31G**
   PDB_PRINT 2
   SCF_CONVERGENCE 6
   THRESH 14
   SCF_PRINT 1
$end
$molecule
0 1
H 0.866082 0.263723 1.532703
C -0.155638 -0.047414 -0.275413
H 0.161067 0.843492 -0.801558
H 0.296087 -0.987767 -0.562652
H -1.167699 -0.072138 0.106720
$end
$scan
stre 1 2 2.200000 2.201000 0.100000
$end
