
$comment
	potential surface scanner
$end

$rem
   JOBTYPE  PES_SCAN
   UNRESTRICTED TRUE
   SYM_IGNORE  TRUE
   GEOM_OPT_MAX_CYCLES 400
   SCF_MAX_CYCLES 400
   METHOD   B3LYP
   BASIS   6-31G**
   PDB_PRINT 2
   SCF_CONVERGENCE 6
   THRESH 14
   SCF_PRINT 1
$end
$molecule
0 3
H 0.285853 0.605654 1.029632
C -0.039929 -0.084662 -0.143965
H 0.771889 0.590554 -0.413644
H -0.303852 -0.643683 -1.094031
H -0.714067 -0.467963 0.621810
$end
$scan
stre 1 2 1.300000 1.301000 0.100000
$end
