
$comment
	potential surface scanner
$end

$rem
   JOBTYPE  PES_SCAN
   UNRESTRICTED TRUE
   SYM_IGNORE  TRUE
   GEOM_OPT_MAX_CYCLES 400
   SCF_MAX_CYCLES 400
   METHOD   B3LYP
   BASIS   6-31G**
   PDB_PRINT 2
   SCF_CONVERGENCE 6
   THRESH 14
   SCF_PRINT 1
$end
$molecule
0 3
H 0.376151 0.794983 1.351413
C -0.090249 -0.191346 -0.324781
H 0.703041 0.542607 -0.364768
H -0.343030 -0.727767 -1.236790
H -0.646017 -0.418576 0.574726
$end
$scan
stre 1 2 1.900000 1.901000 0.100000
$end
