
$comment
	potential surface scanner
$end

$rem
   JOBTYPE  PES_SCAN
   UNRESTRICTED TRUE
   SYM_IGNORE  TRUE
   GEOM_OPT_MAX_CYCLES 400
   SCF_MAX_CYCLES 400
   METHOD   B3LYP
   BASIS   6-31G**
   PDB_PRINT 2
   SCF_CONVERGENCE 6
   THRESH 14
   SCF_PRINT 1
$end
$molecule
0 1
H 0.899602 0.273947 1.592101
C -0.170722 -0.052014 -0.302141
H 0.155759 0.843581 -0.813282
H 0.291064 -0.991615 -0.573878
H -1.175804 -0.074003 0.096999
$end
$scan
stre 1 2 2.300000 2.301000 0.100000
$end
