
$comment
	potential surface scanner
$end

$rem
   JOBTYPE  PES_SCAN
   UNRESTRICTED TRUE
   SYM_IGNORE  TRUE
   GEOM_OPT_MAX_CYCLES 400
   SCF_MAX_CYCLES 400
   METHOD   B3LYP
   BASIS   6-31G**
   PDB_PRINT 2
   SCF_CONVERGENCE 6
   THRESH 14
   SCF_PRINT 1
$end
$molecule
0 1
H 1.002570 0.305480 1.774643
C -0.213524 -0.065093 -0.377981
H 0.137511 0.841534 -0.850504
H 0.273237 -1.001896 -0.610326
H -1.199895 -0.080128 0.063968
$end
$scan
stre 1 2 2.600000 2.601000 0.100000
$end
