
$comment
	potential surface scanner
$end

$rem
   JOBTYPE  PES_SCAN
   UNRESTRICTED TRUE
   SYM_IGNORE  TRUE
   GEOM_OPT_MAX_CYCLES 400
   SCF_MAX_CYCLES 400
   METHOD   B3LYP
   BASIS   6-31G**
   PDB_PRINT 2
   SCF_CONVERGENCE 6
   THRESH 14
   SCF_PRINT 1
$end
$molecule
0 3
H 1.437715 0.440636 2.547649
C -0.360424 -0.110545 -0.638712
H 0.044786 0.817009 -1.021002
H 0.177170 -1.037765 -0.787069
H -1.299348 -0.109435 -0.101065
$end
$scan
stre 1 2 3.600000 3.601000 0.100000
$end
