
$comment
	potential surface scanner
$end

$rem
   JOBTYPE  PES_SCAN
   UNRESTRICTED TRUE
   SYM_IGNORE  TRUE
   GEOM_OPT_MAX_CYCLES 400
   SCF_MAX_CYCLES 400
   METHOD   B3LYP
   BASIS   6-31G**
   PDB_PRINT 2
   SCF_CONVERGENCE 6
   THRESH 14
   SCF_PRINT 1
$end
$molecule
0 3
H 0.989098 0.320731 1.772555
C -0.262815 -0.084320 -0.469910
H 0.168837 0.849708 -0.804880
H 0.276785 -1.010979 -0.614729
H -1.172008 -0.075238 0.116762
$end
$scan
stre 1 2 2.500000 2.501000 0.100000
$end
