
$comment
	potential surface scanner
$end

$rem
   JOBTYPE  PES_SCAN
   UNRESTRICTED TRUE
   SYM_IGNORE  TRUE
   GEOM_OPT_MAX_CYCLES 400
   SCF_MAX_CYCLES 400
   METHOD   B3LYP
   BASIS   6-31G**
   PDB_PRINT 2
   SCF_CONVERGENCE 6
   THRESH 14
   SCF_PRINT 1
$end
$molecule
0 1
H 0.967808 0.294824 1.713044
C -0.199681 -0.060861 -0.353464
H 0.143981 0.842569 -0.837727
H 0.279626 -0.998645 -0.597706
H -1.191835 -0.077991 0.075653
$end
$scan
stre 1 2 2.500000 2.501000 0.100000
$end
