
$comment
	potential surface scanner
$end

$rem
   JOBTYPE  PES_SCAN
   UNRESTRICTED TRUE
   SYM_IGNORE  TRUE
   GEOM_OPT_MAX_CYCLES 400
   SCF_MAX_CYCLES 400
   METHOD   B3LYP
   BASIS   6-31G**
   PDB_PRINT 2
   SCF_CONVERGENCE 6
   THRESH 14
   SCF_PRINT 1
$end
$molecule
0 3
H 0.340708 0.721007 1.226094
C -0.078488 -0.166467 -0.282769
H 0.717497 0.561425 -0.347827
H -0.332702 -0.705409 -1.198776
H -0.647119 -0.410655 0.603078
$end
$scan
stre 1 2 1.700000 1.701000 0.100000
$end
