
$comment
	potential surface scanner
$end

$rem
   JOBTYPE  PES_SCAN
   UNRESTRICTED TRUE
   SYM_IGNORE  TRUE
   GEOM_OPT_MAX_CYCLES 400
   SCF_MAX_CYCLES 400
   METHOD   B3LYP
   BASIS   6-31G**
   PDB_PRINT 2
   SCF_CONVERGENCE 6
   THRESH 14
   SCF_PRINT 1
$end
$molecule
0 3
H 0.430376 0.909265 1.546461
C -0.106020 -0.224505 -0.381452
H 0.684953 0.513463 -0.402898
H -0.357916 -0.759668 -1.290384
H -0.651497 -0.438654 0.528072
$end
$scan
stre 1 2 2.200000 2.201000 0.100000
$end
