
$comment
	potential surface scanner
$end

$rem
   JOBTYPE  PES_SCAN
   UNRESTRICTED TRUE
   SYM_IGNORE  TRUE
   GEOM_OPT_MAX_CYCLES 400
   SCF_MAX_CYCLES 400
   METHOD   B3LYP
   BASIS   6-31G**
   PDB_PRINT 2
   SCF_CONVERGENCE 6
   THRESH 14
   SCF_PRINT 1
$end
$molecule
0 3
H 1.318773 0.406225 2.339140
C -0.332186 -0.102444 -0.589272
H 0.075963 0.826080 -0.966119
H 0.205224 -1.029734 -0.737980
H -1.267876 -0.100228 -0.045969
$end
$scan
stre 1 2 3.300000 3.301000 0.100000
$end
