
$comment
	potential surface scanner
$end

$rem
   JOBTYPE  PES_SCAN
   UNRESTRICTED TRUE
   SYM_IGNORE  TRUE
   GEOM_OPT_MAX_CYCLES 400
   SCF_MAX_CYCLES 400
   METHOD   B3LYP
   BASIS   6-31G**
   PDB_PRINT 2
   SCF_CONVERGENCE 6
   THRESH 14
   SCF_PRINT 1
$end
$molecule
0 3
H 1.158119 0.360953 2.058538
C -0.295977 -0.092281 -0.526067
H 0.119288 0.838261 -0.890007
H 0.242589 -1.019227 -0.672722
H -1.224122 -0.087805 0.030057
$end
$scan
stre 1 2 2.900000 2.901000 0.100000
$end
