
$comment
	potential surface scanner
$end

$rem
   JOBTYPE  PES_SCAN
   UNRESTRICTED TRUE
   SYM_IGNORE  TRUE
   GEOM_OPT_MAX_CYCLES 400
   SCF_MAX_CYCLES 400
   METHOD   B3LYP
   BASIS   6-31G**
   PDB_PRINT 2
   SCF_CONVERGENCE 6
   THRESH 14
   SCF_PRINT 1
$end
$molecule
0 3
H 1.182790 0.360575 2.093565
C -0.276577 -0.084336 -0.489515
H 0.099889 0.832538 -0.920570
H 0.235731 -1.016788 -0.680167
H -1.241933 -0.092089 -0.003513
$end
$scan
stre 1 2 4.000000 4.001000 0.100000
$end
