
$comment
	potential surface scanner
$end

$rem
   JOBTYPE  PES_SCAN
   UNRESTRICTED TRUE
   SYM_IGNORE  TRUE
   GEOM_OPT_MAX_CYCLES 400
   SCF_MAX_CYCLES 400
   METHOD   B3LYP
   BASIS   6-31G**
   PDB_PRINT 2
   SCF_CONVERGENCE 6
   THRESH 14
   SCF_PRINT 1
$end
$molecule
0 3
H 0.308386 0.652883 1.110359
C -0.064045 -0.135946 -0.230926
H 0.736741 0.579179 -0.348572
H -0.320936 -0.680289 -1.156065
H -0.660250 -0.415927 0.625004
$end
$scan
stre 1 2 1.500000 1.501000 0.100000
$end
