
$comment
	potential surface scanner
$end

$rem
   JOBTYPE  PES_SCAN
   UNRESTRICTED TRUE
   SYM_IGNORE  TRUE
   GEOM_OPT_MAX_CYCLES 400
   SCF_MAX_CYCLES 400
   METHOD   B3LYP
   BASIS   6-31G**
   PDB_PRINT 2
   SCF_CONVERGENCE 6
   THRESH 14
   SCF_PRINT 1
$end
$molecule
0 3
H 0.294876 0.624106 1.061062
C -0.054479 -0.115564 -0.196253
H 0.750599 0.586845 -0.364778
H -0.313777 -0.665123 -1.130373
H -0.677325 -0.430364 0.630143
$end
$scan
stre 1 2 1.400000 1.401000 0.100000
$end
