
$comment
	potential surface scanner
$end

$rem
   JOBTYPE  PES_SCAN
   UNRESTRICTED TRUE
   SYM_IGNORE  TRUE
   GEOM_OPT_MAX_CYCLES 400
   SCF_MAX_CYCLES 400
   METHOD   B3LYP
   BASIS   6-31G**
   PDB_PRINT 2
   SCF_CONVERGENCE 6
   THRESH 14
   SCF_PRINT 1
$end
$molecule
0 3
H 0.323893 0.685722 1.166215
C -0.071813 -0.152397 -0.258907
H 0.726188 0.570600 -0.344486
H -0.327154 -0.693474 -1.178476
H -0.651218 -0.410551 0.615454
$end
$scan
stre 1 2 1.600000 1.601000 0.100000
$end
