
$comment
	potential surface scanner
$end

$rem
   JOBTYPE  PES_SCAN
   UNRESTRICTED TRUE
   SYM_IGNORE  TRUE
   GEOM_OPT_MAX_CYCLES 400
   SCF_MAX_CYCLES 400
   METHOD   B3LYP
   BASIS   6-31G**
   PDB_PRINT 2
   SCF_CONVERGENCE 6
   THRESH 14
   SCF_PRINT 1
$end
$molecule
0 1
H 0.602393 0.183459 1.066076
C -0.030091 -0.009196 -0.053231
H 0.195683 0.831189 -0.709053
H 0.326754 -0.947425 -0.477091
H -1.094839 -0.058128 0.173101
$end
$scan
stre 1 2 1.400000 1.401000 0.100000
$end
