
$comment
	potential surface scanner
$end

$rem
   JOBTYPE  PES_SCAN
   UNRESTRICTED TRUE
   SYM_IGNORE  TRUE
   GEOM_OPT_MAX_CYCLES 400
   SCF_MAX_CYCLES 400
   METHOD   B3LYP
   BASIS   6-31G**
   PDB_PRINT 2
   SCF_CONVERGENCE 6
   THRESH 14
   SCF_PRINT 1
$end
$molecule
0 3
H 1.116918 0.350036 1.987506
C -0.287424 -0.090016 -0.511330
H 0.130849 0.841278 -0.869873
H 0.251738 -1.016777 -0.656913
H -1.212183 -0.084620 0.050409
$end
$scan
stre 1 2 2.800000 2.801000 0.100000
$end
