
$comment
	potential surface scanner
$end

$rem
   JOBTYPE  PES_SCAN
   UNRESTRICTED TRUE
   SYM_IGNORE  TRUE
   GEOM_OPT_MAX_CYCLES 400
   SCF_MAX_CYCLES 400
   METHOD   B3LYP
   BASIS   6-31G**
   PDB_PRINT 2
   SCF_CONVERGENCE 6
   THRESH 14
   SCF_PRINT 1
$end
$molecule
0 3
H 0.358173 0.757577 1.288132
C -0.084542 -0.179276 -0.304449
H 0.709792 0.551944 -0.355057
H -0.337962 -0.716741 -1.218029
H -0.645565 -0.413603 0.589203
$end
$scan
stre 1 2 1.800000 1.801000 0.100000
$end
