
$comment
	potential surface scanner
$end

$rem
   JOBTYPE  PES_SCAN
   UNRESTRICTED TRUE
   SYM_IGNORE  TRUE
   GEOM_OPT_MAX_CYCLES 400
   SCF_MAX_CYCLES 400
   METHOD   B3LYP
   BASIS   6-31G**
   PDB_PRINT 2
   SCF_CONVERGENCE 6
   THRESH 14
   SCF_PRINT 1
$end
$molecule
0 3
H 1.555737 0.474940 2.755149
C -0.389284 -0.118831 -0.689314
H 0.014061 0.807932 -1.075278
H 0.149338 -1.045671 -0.835880
H -1.329952 -0.118470 -0.154876
$end
$scan
stre 1 2 3.900000 3.901000 0.100000
$end
