
$comment
	potential surface scanner
$end

$rem
   JOBTYPE  PES_SCAN
   UNRESTRICTED TRUE
   SYM_IGNORE  TRUE
   GEOM_OPT_MAX_CYCLES 400
   SCF_MAX_CYCLES 400
   METHOD   B3LYP
   BASIS   6-31G**
   PDB_PRINT 2
   SCF_CONVERGENCE 6
   THRESH 14
   SCF_PRINT 1
$end
$molecule
0 3
H 1.032627 0.329647 1.844475
C -0.270867 -0.085983 -0.483218
H 0.155468 0.847073 -0.827501
H 0.269047 -1.012531 -0.627471
H -1.186378 -0.078304 0.093513
$end
$scan
stre 1 2 2.600000 2.601000 0.100000
$end
