
$comment
	potential surface scanner
$end

$rem
   JOBTYPE  PES_SCAN
   UNRESTRICTED TRUE
   SYM_IGNORE  TRUE
   GEOM_OPT_MAX_CYCLES 400
   SCF_MAX_CYCLES 400
   METHOD   B3LYP
   BASIS   6-31G**
   PDB_PRINT 2
   SCF_CONVERGENCE 6
   THRESH 14
   SCF_PRINT 1
$end
$molecule
0 1
H 1.109612 0.338262 1.964028
C -0.252463 -0.076992 -0.446847
H 0.115879 0.836737 -0.891321
H 0.251667 -1.011004 -0.651014
H -1.224795 -0.087106 0.024954
$end
$scan
stre 1 2 2.900000 2.901000 0.100000
$end
