
$comment
	potential surface scanner
$end

$rem
   JOBTYPE  PES_SCAN
   UNRESTRICTED TRUE
   SYM_IGNORE  TRUE
   GEOM_OPT_MAX_CYCLES 400
   SCF_MAX_CYCLES 400
   METHOD   B3LYP
   BASIS   6-31G**
   PDB_PRINT 2
   SCF_CONVERGENCE 6
   THRESH 14
   SCF_PRINT 1
$end
$molecule
0 3
H 1.239108 0.383402 2.199590
C -0.313660 -0.097165 -0.556851
H 0.097113 0.832155 -0.928903
H 0.223927 -1.024413 -0.705244
H -1.246590 -0.094079 -0.008792
$end
$scan
stre 1 2 3.100000 3.101000 0.100000
$end
