
$comment
	potential surface scanner
$end

$rem
   JOBTYPE  PES_SCAN
   UNRESTRICTED TRUE
   SYM_IGNORE  TRUE
   GEOM_OPT_MAX_CYCLES 400
   SCF_MAX_CYCLES 400
   METHOD   B3LYP
   BASIS   6-31G**
   PDB_PRINT 2
   SCF_CONVERGENCE 6
   THRESH 14
   SCF_PRINT 1
$end
$molecule
0 3
H 1.198838 0.372105 2.129265
C -0.304704 -0.094664 -0.541220
H 0.108048 0.835212 -0.909688
H 0.233287 -1.021789 -0.688898
H -1.235571 -0.090963 0.010341
$end
$scan
stre 1 2 3.000000 3.001000 0.100000
$end
