
$comment
	potential surface scanner
$end

$rem
   JOBTYPE  PES_SCAN
   UNRESTRICTED TRUE
   SYM_IGNORE  TRUE
   GEOM_OPT_MAX_CYCLES 400
   SCF_MAX_CYCLES 400
   METHOD   B3LYP
   BASIS   6-31G**
   PDB_PRINT 2
   SCF_CONVERGENCE 6
   THRESH 14
   SCF_PRINT 1
$end
$molecule
0 1
H 0.767165 0.233676 1.357782
C -0.108531 -0.033077 -0.192056
H 0.174899 0.840755 -0.767693
H 0.308650 -0.974554 -0.530979
H -1.142283 -0.066902 0.132747
$end
$scan
stre 1 2 1.900000 1.901000 0.100000
$end
