
$comment
	potential surface scanner
$end

$rem
   JOBTYPE  PES_SCAN
   UNRESTRICTED TRUE
   SYM_IGNORE  TRUE
   GEOM_OPT_MAX_CYCLES 400
   SCF_MAX_CYCLES 400
   METHOD   B3LYP
   BASIS   6-31G**
   PDB_PRINT 2
   SCF_CONVERGENCE 6
   THRESH 14
   SCF_PRINT 1
$end
$molecule
0 1
H 0.568480 0.173137 1.006105
C -0.015336 -0.004690 -0.027112
H 0.200437 0.829339 -0.696207
H 0.330934 -0.941694 -0.465232
H -1.084615 -0.056193 0.182247
$end
$scan
stre 1 2 1.300000 1.301000 0.100000
$end
