
$comment
	potential surface scanner
$end

$rem
   JOBTYPE  PES_SCAN
   UNRESTRICTED TRUE
   SYM_IGNORE  TRUE
   GEOM_OPT_MAX_CYCLES 400
   SCF_MAX_CYCLES 400
   METHOD   B3LYP
   BASIS   6-31G**
   PDB_PRINT 2
   SCF_CONVERGENCE 6
   THRESH 14
   SCF_PRINT 1
$end
$molecule
0 3
H 1.398098 0.429198 2.478091
C -0.351037 -0.107861 -0.622246
H 0.055240 0.820042 -1.002575
H 0.186518 -1.035093 -0.770697
H -1.288920 -0.106386 -0.082773
$end
$scan
stre 1 2 3.500000 3.501000 0.100000
$end
