
$comment
	potential surface scanner
$end

$rem
   JOBTYPE  PES_SCAN
   UNRESTRICTED TRUE
   SYM_IGNORE  TRUE
   GEOM_OPT_MAX_CYCLES 400
   SCF_MAX_CYCLES 400
   METHOD   B3LYP
   BASIS   6-31G**
   PDB_PRINT 2
   SCF_CONVERGENCE 6
   THRESH 14
   SCF_PRINT 1
$end
$molecule
0 1
H 0.734500 0.223733 1.299999
C -0.092528 -0.028203 -0.163747
H 0.179004 0.839136 -0.756487
H 0.312261 -0.969557 -0.520641
H -1.133337 -0.065211 0.140677
$end
$scan
stre 1 2 1.800000 1.801000 0.100000
$end
