
$comment
	potential surface scanner
$end

$rem
   JOBTYPE  PES_SCAN
   UNRESTRICTED TRUE
   SYM_IGNORE  TRUE
   GEOM_OPT_MAX_CYCLES 400
   SCF_MAX_CYCLES 400
   METHOD   B3LYP
   BASIS   6-31G**
   PDB_PRINT 2
   SCF_CONVERGENCE 6
   THRESH 14
   SCF_PRINT 1
$end
$molecule
0 3
H 0.942663 0.315008 1.700236
C -0.255574 -0.082495 -0.457592
H 0.185944 0.851359 -0.780116
H 0.281932 -1.009965 -0.606650
H -1.155068 -0.074005 0.143921
$end
$scan
stre 1 2 2.400000 2.401000 0.100000
$end
