
$comment
	potential surface scanner
$end

$rem
   JOBTYPE  PES_SCAN
   UNRESTRICTED TRUE
   SYM_IGNORE  TRUE
   GEOM_OPT_MAX_CYCLES 400
   SCF_MAX_CYCLES 400
   METHOD   B3LYP
   BASIS   6-31G**
   PDB_PRINT 2
   SCF_CONVERGENCE 6
   THRESH 14
   SCF_PRINT 1
$end
$molecule
0 3
H 0.394245 0.832815 1.415764
C -0.095688 -0.202774 -0.344214
H 0.696602 0.532978 -0.376259
H -0.347993 -0.738555 -1.254952
H -0.647270 -0.424563 0.559460
$end
$scan
stre 1 2 2.000000 2.001000 0.100000
$end
