
$comment
	potential surface scanner
$end

$rem
   JOBTYPE  PES_SCAN
   UNRESTRICTED TRUE
   SYM_IGNORE  TRUE
   GEOM_OPT_MAX_CYCLES 400
   SCF_MAX_CYCLES 400
   METHOD   B3LYP
   BASIS   6-31G**
   PDB_PRINT 2
   SCF_CONVERGENCE 6
   THRESH 14
   SCF_PRINT 1
$end
$molecule
0 3
H 1.358431 0.417715 2.408592
C -0.341624 -0.105160 -0.605777
H 0.065616 0.823063 -0.984314
H 0.195877 -1.032413 -0.754331
H -1.278401 -0.103305 -0.064370
$end
$scan
stre 1 2 3.400000 3.401000 0.100000
$end
