
$comment
	potential surface scanner
$end

$rem
   JOBTYPE  PES_SCAN
   UNRESTRICTED TRUE
   SYM_IGNORE  TRUE
   GEOM_OPT_MAX_CYCLES 400
   SCF_MAX_CYCLES 400
   METHOD   B3LYP
   BASIS   6-31G**
   PDB_PRINT 2
   SCF_CONVERGENCE 6
   THRESH 14
   SCF_PRINT 1
$end
$molecule
0 1
H 0.701770 0.213746 1.242036
C -0.076624 -0.023358 -0.135602
H 0.183033 0.837256 -0.745040
H 0.315779 -0.964248 -0.510110
H -1.124059 -0.063497 0.148517
$end
$scan
stre 1 2 1.700000 1.701000 0.100000
$end
