
$comment
	potential surface scanner
$end

$rem
   JOBTYPE  PES_SCAN
   UNRESTRICTED TRUE
   SYM_IGNORE  TRUE
   GEOM_OPT_MAX_CYCLES 400
   SCF_MAX_CYCLES 400
   METHOD   B3LYP
   BASIS   6-31G**
   PDB_PRINT 2
   SCF_CONVERGENCE 6
   THRESH 14
   SCF_PRINT 1
$end
$molecule
0 3
H 1.075144 0.339517 1.916148
C -0.279057 -0.087899 -0.497036
H 0.142856 0.844233 -0.849109
H 0.260618 -1.014508 -0.641700
H -1.199664 -0.081442 0.071495
$end
$scan
stre 1 2 2.700000 2.701000 0.100000
$end
