
$comment
	potential surface scanner
$end

$rem
   JOBTYPE  PES_SCAN
   UNRESTRICTED TRUE
   SYM_IGNORE  TRUE
   GEOM_OPT_MAX_CYCLES 400
   SCF_MAX_CYCLES 400
   METHOD   B3LYP
   BASIS   6-31G**
   PDB_PRINT 2
   SCF_CONVERGENCE 6
   THRESH 14
   SCF_PRINT 1
$end
$molecule
0 1
H 1.037803 0.316277 1.837018
C -0.226929 -0.069191 -0.401702
H 0.130659 0.840192 -0.863687
H 0.266428 -1.005018 -0.623424
H -1.208062 -0.082363 0.051595
$end
$scan
stre 1 2 2.700000 2.701000 0.100000
$end
