
$comment
	potential surface scanner
$end

$rem
   JOBTYPE  PES_SCAN
   UNRESTRICTED TRUE
   SYM_IGNORE  TRUE
   GEOM_OPT_MAX_CYCLES 400
   SCF_MAX_CYCLES 400
   METHOD   B3LYP
   BASIS   6-31G**
   PDB_PRINT 2
   SCF_CONVERGENCE 6
   THRESH 14
   SCF_PRINT 1
$end
$molecule
0 3
H 1.516509 0.463465 2.686141
C -0.379545 -0.116044 -0.672304
H 0.024144 0.811002 -1.057380
H 0.158635 -1.043085 -0.819567
H -1.319842 -0.115438 -0.137088
$end
$scan
stre 1 2 3.800000 3.801000 0.100000
$end
