
$comment
	potential surface scanner
$end

$rem
   JOBTYPE  PES_SCAN
   UNRESTRICTED TRUE
   SYM_IGNORE  TRUE
   GEOM_OPT_MAX_CYCLES 400
   SCF_MAX_CYCLES 400
   METHOD   B3LYP
   BASIS   6-31G**
   PDB_PRINT 2
   SCF_CONVERGENCE 6
   THRESH 14
   SCF_PRINT 1
$end
$molecule
0 3
H 0.280732 0.591848 1.002174
C -0.000606 -0.001362 -0.002291
H 0.817788 0.582219 -0.571024
H -0.280980 -0.592280 -1.002766
H -0.817039 -0.580527 0.573709
$end
$scan
stre 1 2 1.100000 1.101000 0.100000
$end
