
$comment
	potential surface scanner
$end

$rem
   JOBTYPE  PES_SCAN
   UNRESTRICTED TRUE
   SYM_IGNORE  TRUE
   GEOM_OPT_MAX_CYCLES 400
   SCF_MAX_CYCLES 400
   METHOD   B3LYP
   BASIS   6-31G**
   PDB_PRINT 2
   SCF_CONVERGENCE 6
   THRESH 14
   SCF_PRINT 1
$end
$molecule
0 1
H 1.073497 0.327208 1.900161
C -0.239901 -0.073155 -0.424640
H 0.123439 0.838580 -0.877294
H 0.259225 -1.008044 -0.636993
H -1.216360 -0.084692 0.038567
$end
$scan
stre 1 2 2.800000 2.801000 0.100000
$end
