
$comment
	potential surface scanner
$end

$rem
   JOBTYPE  PES_SCAN
   UNRESTRICTED TRUE
   SYM_IGNORE  TRUE
   GEOM_OPT_MAX_CYCLES 400
   SCF_MAX_CYCLES 400
   METHOD   B3LYP
   BASIS   6-31G**
   PDB_PRINT 2
   SCF_CONVERGENCE 6
   THRESH 14
   SCF_PRINT 1
$end
$molecule
0 3
H 0.286242 0.603897 1.023125
C -0.018029 -0.038526 -0.065319
H 0.798173 0.584556 -0.507736
H -0.292615 -0.616520 -1.043408
H -0.773877 -0.533508 0.593140
$end
$scan
stre 1 2 1.200000 1.201000 0.100000
$end
