
$comment
	potential surface scanner
$end

$rem
   JOBTYPE  PES_SCAN
   UNRESTRICTED TRUE
   SYM_IGNORE  TRUE
   GEOM_OPT_MAX_CYCLES 400
   SCF_MAX_CYCLES 400
   METHOD   B3LYP
   BASIS   6-31G**
   PDB_PRINT 2
   SCF_CONVERGENCE 6
   THRESH 14
   SCF_PRINT 1
$end
$molecule
0 3
H 0.412313 0.870906 1.480861
C -0.100935 -0.213772 -0.363062
H 0.690606 0.523265 -0.389098
H -0.352948 -0.749203 -1.272778
H -0.649140 -0.431295 0.543876
$end
$scan
stre 1 2 2.100000 2.101000 0.100000
$end
