
$comment
	potential surface scanner
$end

$rem
   JOBTYPE  PES_SCAN
   UNRESTRICTED TRUE
   SYM_IGNORE  TRUE
   GEOM_OPT_MAX_CYCLES 400
   SCF_MAX_CYCLES 400
   METHOD   B3LYP
   BASIS   6-31G**
   PDB_PRINT 2
   SCF_CONVERGENCE 6
   THRESH 14
   SCF_PRINT 1
$end
$molecule
0 1
H 0.832877 0.253625 1.473943
C -0.140193 -0.042711 -0.248068
H 0.165999 0.842981 -0.790113
H 0.300655 -0.983655 -0.551835
H -1.159438 -0.070344 0.115874
$end
$scan
stre 1 2 2.100000 2.101000 0.100000
$end
