
$comment
	potential surface scanner
$end

$rem
   JOBTYPE  PES_SCAN
   UNRESTRICTED TRUE
   SYM_IGNORE  TRUE
   GEOM_OPT_MAX_CYCLES 400
   SCF_MAX_CYCLES 400
   METHOD   B3LYP
   BASIS   6-31G**
   PDB_PRINT 2
   SCF_CONVERGENCE 6
   THRESH 14
   SCF_PRINT 1
$end
$molecule
0 3
H 1.477182 0.452044 2.617024
C -0.369923 -0.113260 -0.655381
H 0.034406 0.813983 -1.039333
H 0.167882 -1.040413 -0.803359
H -1.309647 -0.112454 -0.119149
$end
$scan
stre 1 2 3.700000 3.701000 0.100000
$end
