
$comment
	potential surface scanner
$end

$rem
   JOBTYPE  PES_SCAN
   UNRESTRICTED TRUE
   SYM_IGNORE  TRUE
   GEOM_OPT_MAX_CYCLES 400
   SCF_MAX_CYCLES 400
   METHOD   B3LYP
   BASIS   6-31G**
   PDB_PRINT 2
   SCF_CONVERGENCE 6
   THRESH 14
   SCF_PRINT 1
$end
$molecule
0 1
H 0.799927 0.243624 1.415698
C -0.124455 -0.037923 -0.220227
H 0.170589 0.842057 -0.778864
H 0.304814 -0.979255 -0.541327
H -1.150975 -0.068605 0.124522
$end
$scan
stre 1 2 2.000000 2.001000 0.100000
$end
