
$comment
	potential surface scanner
$end

$rem
   JOBTYPE  PES_SCAN
   UNRESTRICTED TRUE
   SYM_IGNORE  TRUE
   GEOM_OPT_MAX_CYCLES 400
   SCF_MAX_CYCLES 400
   METHOD   B3LYP
   BASIS   6-31G**
   PDB_PRINT 2
   SCF_CONVERGENCE 6
   THRESH 14
   SCF_PRINT 1
$end
$molecule
0 3
Br 2.704447 2.545364 0.427796
Br -0.160567 1.870417 0.461345
C -0.825500 -0.994977 -0.579904
C 0.386638 -0.551744 -0.100908
C -1.915720 -1.557142 0.261852
H -1.029552 -0.879615 -1.643391
H 0.681458 -0.751892 0.923693
H 1.174524 -0.243318 -0.778057
H -1.634029 -1.622845 1.315155
H -2.818085 -0.936992 0.177729
H -2.198816 -2.556258 -0.094505
$end
$scan
stre 1 3 5.000000 5.001000 0.100000
$end
