
$comment
	potential surface scanner
$end

$rem
   JOBTYPE  PES_SCAN
   UNRESTRICTED TRUE
   SYM_IGNORE  TRUE
   GEOM_OPT_MAX_CYCLES 400
   SCF_MAX_CYCLES 400
   METHOD   B3LYP
   BASIS   6-31G**
   PDB_PRINT 2
   SCF_CONVERGENCE 6
   THRESH 14
   SCF_PRINT 1
$end
$molecule
0 3
Br 2.690732 2.864279 1.128738
Br 0.024320 1.916245 0.157305
C -0.889569 -1.063964 -0.634882
C 0.375424 -0.650761 -0.297227
C -1.912194 -1.543143 0.333282
H -1.189035 -0.999211 -1.680013
H 0.752715 -0.786060 0.711078
H 1.102617 -0.408416 -1.063428
H -1.530667 -1.572611 1.356261
H -2.794973 -0.890771 0.306155
H -2.264572 -2.544589 0.053533
$end
$scan
stre 1 3 5.500000 5.501000 0.100000
$end
