
$comment
	potential surface scanner
$end

$rem
   JOBTYPE  PES_SCAN
   UNRESTRICTED TRUE
   SYM_IGNORE  TRUE
   GEOM_OPT_MAX_CYCLES 400
   SCF_MAX_CYCLES 400
   METHOD   B3LYP
   BASIS   6-31G**
   PDB_PRINT 2
   SCF_CONVERGENCE 6
   THRESH 14
   SCF_PRINT 1
$end
$molecule
0 3
Br 1.513737 2.655817 -1.208858
Br 0.200321 1.597368 1.203537
C -0.602635 -0.881923 -0.405511
C 0.517602 -0.773978 0.387586
C -1.916400 -1.412123 0.047107
H -0.539026 -0.509473 -1.426376
H 0.531471 -1.209665 1.381999
H 1.472929 -0.501040 -0.044791
H -1.891956 -1.752988 1.084775
H -2.693383 -0.643699 -0.054669
H -2.227865 -2.247302 -0.593992
$end
$scan
stre 1 3 4.100000 4.101000 0.100000
$end
