
$comment
	potential surface scanner
$end

$rem
   JOBTYPE  PES_SCAN
   UNRESTRICTED TRUE
   SYM_IGNORE  TRUE
   GEOM_OPT_MAX_CYCLES 400
   SCF_MAX_CYCLES 400
   METHOD   B3LYP
   BASIS   6-31G**
   PDB_PRINT 2
   SCF_CONVERGENCE 6
   THRESH 14
   SCF_PRINT 1
$end
$molecule
0 1
Br -0.683454 1.805567 0.171279
Br 2.405186 -0.157411 -0.235218
C -0.531409 -0.122356 -0.338617
C 0.641483 -0.774501 0.373030
C -1.841098 -0.833135 -0.009916
H -0.359800 -0.089440 -1.414658
H 0.607917 -0.605091 1.448653
H 0.631188 -1.847809 0.172944
H -2.031097 -0.838913 1.067020
H -2.682688 -0.344363 -0.504590
H -1.791429 -1.871549 -0.359129
$end
$scan
stre 1 3 2.100000 2.101000 0.100000
$end
