
$comment
	potential surface scanner
$end

$rem
   JOBTYPE  PES_SCAN
   UNRESTRICTED TRUE
   SYM_IGNORE  TRUE
   GEOM_OPT_MAX_CYCLES 400
   SCF_MAX_CYCLES 400
   METHOD   B3LYP
   BASIS   6-31G**
   PDB_PRINT 2
   SCF_CONVERGENCE 6
   THRESH 14
   SCF_PRINT 1
$end
$molecule
0 3
Br 0.594463 2.238230 -1.408341
Br 0.390288 1.470369 1.430331
C -0.474012 -0.824792 -0.390373
C 0.591045 -0.822795 0.491896
C -1.852029 -1.256119 -0.037618
H -0.312531 -0.451125 -1.396646
H 0.500851 -1.308325 1.458779
H 1.594380 -0.630291 0.130459
H -1.935700 -1.596877 0.997079
H -2.558169 -0.431422 -0.198427
H -2.173793 -2.065855 -0.706334
$end
$scan
stre 1 3 3.300000 3.301000 0.100000
$end
