
$comment
	potential surface scanner
$end

$rem
   JOBTYPE  PES_SCAN
   UNRESTRICTED TRUE
   SYM_IGNORE  TRUE
   GEOM_OPT_MAX_CYCLES 400
   SCF_MAX_CYCLES 400
   METHOD   B3LYP
   BASIS   6-31G**
   PDB_PRINT 2
   SCF_CONVERGENCE 6
   THRESH 14
   SCF_PRINT 1
$end
$molecule
0 3
Br -0.402560 2.069021 -1.156966
Br 0.739398 1.406503 1.463030
C -0.353534 -0.838687 -0.420192
C 0.645977 -0.899403 0.543936
C -1.792693 -1.084164 -0.133959
H -0.068004 -0.675213 -1.452189
H 0.421398 -1.304188 1.525186
H 1.687594 -0.896120 0.244697
H -1.986202 -1.214441 0.933268
H -2.402211 -0.255755 -0.509537
H -2.124369 -1.986557 -0.666467
$end
$scan
stre 1 3 2.900000 2.901000 0.100000
$end
