
$comment
	potential surface scanner
$end

$rem
   JOBTYPE  PES_SCAN
   UNRESTRICTED TRUE
   SYM_IGNORE  TRUE
   GEOM_OPT_MAX_CYCLES 400
   SCF_MAX_CYCLES 400
   METHOD   B3LYP
   BASIS   6-31G**
   PDB_PRINT 2
   SCF_CONVERGENCE 6
   THRESH 14
   SCF_PRINT 1
$end
$molecule
0 1
Br -0.712686 2.048495 0.244412
Br 2.399534 -0.173984 -0.269874
C -0.518612 -0.261296 -0.377843
C 0.659969 -0.798361 0.375222
C -1.848743 -0.862899 -0.023309
H -0.349913 -0.077454 -1.435347
H 0.605137 -0.566006 1.437603
H 0.677581 -1.887007 0.250554
H -2.014112 -0.876049 1.056532
H -2.666659 -0.322594 -0.501273
H -1.866696 -1.901845 -0.385878
$end
$scan
stre 1 3 2.500000 2.501000 0.100000
$end
