
$comment
	potential surface scanner
$end

$rem
   JOBTYPE  PES_SCAN
   UNRESTRICTED TRUE
   SYM_IGNORE  TRUE
   GEOM_OPT_MAX_CYCLES 400
   SCF_MAX_CYCLES 400
   METHOD   B3LYP
   BASIS   6-31G**
   PDB_PRINT 2
   SCF_CONVERGENCE 6
   THRESH 14
   SCF_PRINT 1
$end
$molecule
0 3
Br 2.501059 2.584318 -0.358453
Br -0.101880 1.791797 0.797177
C -0.758530 -0.936244 -0.502426
C 0.416610 -0.592281 0.129657
C -1.934591 -1.553598 0.167610
H -0.862291 -0.688384 -1.557621
H 0.603424 -0.914094 1.149025
H 1.272554 -0.234638 -0.431756
H -1.738474 -1.789694 1.216103
H -2.797446 -0.875905 0.116744
H -2.235638 -2.470280 -0.355254
$end
$scan
stre 1 3 4.700000 4.701000 0.100000
$end
