
$comment
	potential surface scanner
$end

$rem
   JOBTYPE  PES_SCAN
   UNRESTRICTED TRUE
   SYM_IGNORE  TRUE
   GEOM_OPT_MAX_CYCLES 400
   SCF_MAX_CYCLES 400
   METHOD   B3LYP
   BASIS   6-31G**
   PDB_PRINT 2
   SCF_CONVERGENCE 6
   THRESH 14
   SCF_PRINT 1
$end
$molecule
0 3
Br 2.665397 2.662754 1.070085
Br -0.064013 1.922458 0.142401
C -0.873085 -1.046627 -0.626864
C 0.378782 -0.599736 -0.278073
C -1.896535 -1.538987 0.333618
H -1.161533 -0.997288 -1.675903
H 0.749402 -0.721962 0.734333
H 1.110133 -0.352691 -1.038801
H -1.525418 -1.556250 1.360703
H -2.790541 -0.902663 0.293831
H -2.227791 -2.548010 0.055474
$end
$scan
stre 1 3 5.300000 5.301000 0.100000
$end
