
$comment
	potential surface scanner
$end

$rem
   JOBTYPE  PES_SCAN
   UNRESTRICTED TRUE
   SYM_IGNORE  TRUE
   GEOM_OPT_MAX_CYCLES 400
   SCF_MAX_CYCLES 400
   METHOD   B3LYP
   BASIS   6-31G**
   PDB_PRINT 2
   SCF_CONVERGENCE 6
   THRESH 14
   SCF_PRINT 1
$end
$molecule
0 3
Br 2.684926 2.495723 0.858102
Br -0.135210 1.921310 0.225055
C -0.854458 -1.019629 -0.609911
C 0.375360 -0.543371 -0.217070
C -1.893841 -1.549060 0.313103
H -1.113014 -0.962192 -1.666270
H 0.722932 -0.679380 0.801601
H 1.125142 -0.273173 -0.951181
H -1.556264 -1.564935 1.351755
H -2.804814 -0.939234 0.248839
H -2.185962 -2.565060 0.016781
$end
$scan
stre 1 3 5.100000 5.101000 0.100000
$end
