
$comment
	potential surface scanner
$end

$rem
   JOBTYPE  PES_SCAN
   UNRESTRICTED TRUE
   SYM_IGNORE  TRUE
   GEOM_OPT_MAX_CYCLES 400
   SCF_MAX_CYCLES 400
   METHOD   B3LYP
   BASIS   6-31G**
   PDB_PRINT 2
   SCF_CONVERGENCE 6
   THRESH 14
   SCF_PRINT 1
$end
$molecule
0 3
Br 2.441455 2.525998 -0.409141
Br -0.126836 1.780071 0.831407
C -0.745297 -0.927493 -0.498647
C 0.428264 -0.593180 0.141151
C -1.928064 -1.543096 0.161374
H -0.842734 -0.671276 -1.552434
H 0.609869 -0.924665 1.158494
H 1.285456 -0.224440 -0.412594
H -1.738982 -1.786232 1.209561
H -2.786497 -0.859897 0.110109
H -2.231837 -2.454794 -0.368475
$end
$scan
stre 1 3 4.600000 4.601000 0.100000
$end
