
$comment
	potential surface scanner
$end

$rem
   JOBTYPE  PES_SCAN
   UNRESTRICTED TRUE
   SYM_IGNORE  TRUE
   GEOM_OPT_MAX_CYCLES 400
   SCF_MAX_CYCLES 400
   METHOD   B3LYP
   BASIS   6-31G**
   PDB_PRINT 2
   SCF_CONVERGENCE 6
   THRESH 14
   SCF_PRINT 1
$end
$molecule
0 1
Br -0.693485 1.925216 0.209413
Br 2.401905 -0.163098 -0.251904
C -0.525649 -0.193422 -0.359098
C 0.650887 -0.785830 0.374653
C -1.846320 -0.847760 -0.016640
H -0.354862 -0.083464 -1.427844
H 0.606678 -0.585015 1.444020
H 0.655734 -1.867402 0.211416
H -2.023697 -0.856503 1.061773
H -2.677057 -0.334464 -0.503253
H -1.829334 -1.887258 -0.371737
$end
$scan
stre 1 3 2.300000 2.301000 0.100000
$end
