
$comment
	potential surface scanner
$end

$rem
   JOBTYPE  PES_SCAN
   UNRESTRICTED TRUE
   SYM_IGNORE  TRUE
   GEOM_OPT_MAX_CYCLES 400
   SCF_MAX_CYCLES 400
   METHOD   B3LYP
   BASIS   6-31G**
   PDB_PRINT 2
   SCF_CONVERGENCE 6
   THRESH 14
   SCF_PRINT 1
$end
$molecule
0 1
Br -0.702802 1.986043 0.227992
Br 2.400720 -0.168601 -0.261300
C -0.522140 -0.227851 -0.368697
C 0.655586 -0.791952 0.375056
C -1.847783 -0.855311 -0.020126
H -0.352274 -0.079823 -1.432193
H 0.606220 -0.574961 1.440938
H 0.666763 -1.877294 0.231295
H -2.019286 -0.865452 1.058983
H -2.672184 -0.328873 -0.502881
H -1.848020 -1.894925 -0.378269
$end
$scan
stre 1 3 2.400000 2.401000 0.100000
$end
