
$comment
	potential surface scanner
$end

$rem
   JOBTYPE  PES_SCAN
   UNRESTRICTED TRUE
   SYM_IGNORE  TRUE
   GEOM_OPT_MAX_CYCLES 400
   SCF_MAX_CYCLES 400
   METHOD   B3LYP
   BASIS   6-31G**
   PDB_PRINT 2
   SCF_CONVERGENCE 6
   THRESH 14
   SCF_PRINT 1
$end
$molecule
0 1
Br -0.689709 1.865993 0.184224
Br 2.404372 -0.155731 -0.237429
C -0.528005 -0.158659 -0.349287
C 0.646572 -0.780848 0.373470
C -1.843752 -0.839486 -0.011731
H -0.357271 -0.088440 -1.422344
H 0.604667 -0.601966 1.447031
H 0.646373 -1.857430 0.185640
H -2.025829 -0.846174 1.066208
H -2.680094 -0.337568 -0.501335
H -1.812525 -1.878692 -0.363648
$end
$scan
stre 1 3 2.200000 2.201000 0.100000
$end
