
$comment
	potential surface scanner
$end

$rem
   JOBTYPE  PES_SCAN
   UNRESTRICTED TRUE
   SYM_IGNORE  TRUE
   GEOM_OPT_MAX_CYCLES 400
   SCF_MAX_CYCLES 400
   METHOD   B3LYP
   BASIS   6-31G**
   PDB_PRINT 2
   SCF_CONVERGENCE 6
   THRESH 14
   SCF_PRINT 1
$end
$molecule
0 3
Br 2.648212 3.024804 1.126021
Br 0.079441 1.949451 0.174089
C -0.886417 -1.085133 -0.636027
C 0.387235 -0.719181 -0.300999
C -1.920955 -1.545859 0.330261
H -1.189703 -0.999571 -1.679063
H 0.760019 -0.856466 0.708934
H 1.113930 -0.461606 -1.062712
H -1.520499 -1.660741 1.340197
H -2.749774 -0.825897 0.365021
H -2.356691 -2.498801 0.005079
$end
$scan
stre 1 3 5.600000 5.601000 0.100000
$end
