
$comment
	potential surface scanner
$end

$rem
   JOBTYPE  PES_SCAN
   UNRESTRICTED TRUE
   SYM_IGNORE  TRUE
   GEOM_OPT_MAX_CYCLES 400
   SCF_MAX_CYCLES 400
   METHOD   B3LYP
   BASIS   6-31G**
   PDB_PRINT 2
   SCF_CONVERGENCE 6
   THRESH 14
   SCF_PRINT 1
$end
$molecule
0 3
Br 2.291461 2.451294 -0.532059
Br -0.153792 1.747305 0.914251
C -0.720212 -0.891969 -0.482881
C 0.459273 -0.627070 0.167959
C -1.919284 -1.509563 0.147122
H -0.803661 -0.598548 -1.527933
H 0.628121 -0.983087 1.179204
H 1.317814 -0.251891 -0.376958
H -1.760982 -1.735872 1.204237
H -2.786147 -0.843245 0.054682
H -2.187794 -2.436359 -0.376816
$end
$scan
stre 1 3 4.400000 4.401000 0.100000
$end
