
$comment
	potential surface scanner
$end

$rem
   JOBTYPE  PES_SCAN
   UNRESTRICTED TRUE
   SYM_IGNORE  TRUE
   GEOM_OPT_MAX_CYCLES 400
   SCF_MAX_CYCLES 400
   METHOD   B3LYP
   BASIS   6-31G**
   PDB_PRINT 2
   SCF_CONVERGENCE 6
   THRESH 14
   SCF_PRINT 1
$end
$molecule
0 3
Br 1.040494 2.453573 -1.410559
Br 0.305070 1.553319 1.307051
C -0.535487 -0.845690 -0.375594
C 0.554104 -0.814069 0.467068
C -1.885059 -1.343625 -0.000541
H -0.413745 -0.421921 -1.370436
H 0.509037 -1.284259 1.444802
H 1.536640 -0.570713 0.080327
H -1.914661 -1.747550 1.014198
H -2.623125 -0.535205 -0.082347
H -2.208474 -2.122863 -0.703164
$end
$scan
stre 1 3 3.700000 3.701000 0.100000
$end
