
$comment
	potential surface scanner
$end

$rem
   JOBTYPE  PES_SCAN
   UNRESTRICTED TRUE
   SYM_IGNORE  TRUE
   GEOM_OPT_MAX_CYCLES 400
   SCF_MAX_CYCLES 400
   METHOD   B3LYP
   BASIS   6-31G**
   PDB_PRINT 2
   SCF_CONVERGENCE 6
   THRESH 14
   SCF_PRINT 1
$end
$molecule
0 1
Br -0.676119 1.746228 0.156255
Br 2.406464 -0.154451 -0.227227
C -0.534785 -0.085570 -0.328039
C 0.636170 -0.769652 0.370468
C -1.838102 -0.825984 -0.006174
H -0.364222 -0.090446 -1.406381
H 0.607511 -0.617171 1.449091
H 0.619028 -1.838092 0.150815
H -2.038327 -0.823492 1.069231
H -2.683622 -0.354610 -0.511801
H -1.769197 -1.865760 -0.345438
$end
$scan
stre 1 3 2.000000 2.001000 0.100000
$end
