
$comment
	potential surface scanner
$end

$rem
   JOBTYPE  PES_SCAN
   UNRESTRICTED TRUE
   SYM_IGNORE  TRUE
   GEOM_OPT_MAX_CYCLES 400
   SCF_MAX_CYCLES 400
   METHOD   B3LYP
   BASIS   6-31G**
   PDB_PRINT 2
   SCF_CONVERGENCE 6
   THRESH 14
   SCF_PRINT 1
$end
$molecule
0 3
Br 0.849795 2.420425 -1.452098
Br 0.337679 1.538679 1.318021
C -0.505996 -0.847130 -0.368162
C 0.570849 -0.846166 0.490068
C -1.872781 -1.313139 -0.015528
H -0.358867 -0.412632 -1.355514
H 0.501221 -1.313357 1.467807
H 1.564191 -0.619727 0.120946
H -1.928214 -1.720312 0.996857
H -2.587622 -0.484973 -0.105046
H -2.205461 -2.080669 -0.726545
$end
$scan
stre 1 3 3.600000 3.601000 0.100000
$end
