
$comment
	potential surface scanner
$end

$rem
   JOBTYPE  PES_SCAN
   UNRESTRICTED TRUE
   SYM_IGNORE  TRUE
   GEOM_OPT_MAX_CYCLES 400
   SCF_MAX_CYCLES 400
   METHOD   B3LYP
   BASIS   6-31G**
   PDB_PRINT 2
   SCF_CONVERGENCE 6
   THRESH 14
   SCF_PRINT 1
$end
$molecule
0 3
Br 1.329464 2.539507 -1.313171
Br 0.247825 1.587079 1.255297
C -0.579449 -0.851503 -0.387374
C 0.531095 -0.789520 0.423191
C -1.903864 -1.386628 0.025978
H -0.496873 -0.436047 -1.389962
H 0.523291 -1.251645 1.405737
H 1.495638 -0.517989 0.011674
H -1.899258 -1.762458 1.051842
H -2.674788 -0.610944 -0.064896
H -2.208288 -2.198856 -0.647509
$end
$scan
stre 1 3 3.900000 3.901000 0.100000
$end
