
$comment
	potential surface scanner
$end

$rem
   JOBTYPE  PES_SCAN
   UNRESTRICTED TRUE
   SYM_IGNORE  TRUE
   GEOM_OPT_MAX_CYCLES 400
   SCF_MAX_CYCLES 400
   METHOD   B3LYP
   BASIS   6-31G**
   PDB_PRINT 2
   SCF_CONVERGENCE 6
   THRESH 14
   SCF_PRINT 1
$end
$molecule
0 3
Br -0.345282 2.122647 -1.239721
Br 0.683173 1.421568 1.430988
C -0.353843 -0.863036 -0.405680
C 0.647400 -0.911684 0.553208
C -1.792720 -1.101988 -0.119688
H -0.077029 -0.665644 -1.434515
H 0.433034 -1.310502 1.539315
H 1.688447 -0.885329 0.252732
H -1.978188 -1.314773 0.935591
H -2.382515 -0.227033 -0.417159
H -2.157683 -1.943230 -0.724265
$end
$scan
stre 1 3 3.000000 3.001000 0.100000
$end
