
$comment
	potential surface scanner
$end

$rem
   JOBTYPE  PES_SCAN
   UNRESTRICTED TRUE
   SYM_IGNORE  TRUE
   GEOM_OPT_MAX_CYCLES 400
   SCF_MAX_CYCLES 400
   METHOD   B3LYP
   BASIS   6-31G**
   PDB_PRINT 2
   SCF_CONVERGENCE 6
   THRESH 14
   SCF_PRINT 1
$end
$molecule
0 1
C -1.734144 1.272974 0.144938
C -1.082687 0.000000 -0.392110
Se 0.899227 0.000000 -0.110807
H 0.810156 0.000000 1.586858
C -1.734144 -1.272974 0.144938
H -1.272772 2.170444 -0.273193
H -2.802307 1.282953 -0.107065
H -1.649856 1.325317 1.235664
H -1.130334 0.000000 -1.488132
H -2.802307 -1.282953 -0.107065
H -1.272772 -2.170444 -0.273193
H -1.649856 -1.325317 1.235664
$end
$scan
stre 3 4 1.800000 1.801000 0.100000
$end
