
$comment
	potential surface scanner
$end

$rem
   JOBTYPE  PES_SCAN
   UNRESTRICTED TRUE
   SYM_IGNORE  TRUE
   GEOM_OPT_MAX_CYCLES 400
   SCF_MAX_CYCLES 400
   METHOD   B3LYP
   BASIS   6-31G**
   PDB_PRINT 2
   SCF_CONVERGENCE 6
   THRESH 14
   SCF_PRINT 1
$end
$molecule
0 1
C -1.732901 1.273746 0.113809
C -1.117551 0.000000 -0.462619
Se 0.863255 0.000000 -0.351378
H 0.904340 0.000000 2.148284
C -1.732901 -1.273746 0.113809
H -1.301631 2.171600 -0.334416
H -2.815518 1.281156 -0.064425
H -1.567767 1.320596 1.195141
H -1.236204 0.000000 -1.558013
H -2.815518 -1.281156 -0.064425
H -1.301631 -2.171600 -0.334416
H -1.567767 -1.320596 1.195141
$end
$scan
stre 3 4 2.600000 2.601000 0.100000
$end
