
$comment
	potential surface scanner
$end

$rem
   JOBTYPE  PES_SCAN
   UNRESTRICTED TRUE
   SYM_IGNORE  TRUE
   GEOM_OPT_MAX_CYCLES 400
   SCF_MAX_CYCLES 400
   METHOD   B3LYP
   BASIS   6-31G**
   PDB_PRINT 2
   SCF_CONVERGENCE 6
   THRESH 14
   SCF_PRINT 1
$end
$molecule
0 1
C -1.734129 1.272890 0.141152
C -1.086993 0.000000 -0.400936
Se 0.896202 0.000000 -0.141654
H 0.822063 0.000000 1.656818
C -1.734129 -1.272890 0.141152
H -1.276441 2.170622 -0.280431
H -2.804327 1.282616 -0.102016
H -1.639984 1.324051 1.231030
H -1.143305 0.000000 -1.497202
H -2.804327 -1.282616 -0.102016
H -1.276441 -2.170622 -0.280431
H -1.639984 -1.324051 1.231030
$end
$scan
stre 3 4 1.900000 1.901000 0.100000
$end
