
$comment
	potential surface scanner
$end

$rem
   JOBTYPE  PES_SCAN
   UNRESTRICTED TRUE
   SYM_IGNORE  TRUE
   GEOM_OPT_MAX_CYCLES 400
   SCF_MAX_CYCLES 400
   METHOD   B3LYP
   BASIS   6-31G**
   PDB_PRINT 2
   SCF_CONVERGENCE 6
   THRESH 14
   SCF_PRINT 1
$end
$molecule
0 1
C -1.708431 1.274509 0.084527
C -1.154175 0.000000 -0.552283
Se 0.816094 0.000000 -0.652330
H 0.846813 0.000000 2.747531
C -1.708431 -1.274509 0.084527
H -1.322218 2.173203 -0.401083
H -2.803240 1.282072 0.014443
H -1.434928 1.313793 1.144291
H -1.392896 0.000000 -1.630783
H -2.803240 -1.282072 0.014443
H -1.322218 -2.173203 -0.401083
H -1.434928 -1.313793 1.144291
$end
$scan
stre 3 4 3.500000 3.501000 0.100000
$end
