
$comment
	potential surface scanner
$end

$rem
   JOBTYPE  PES_SCAN
   UNRESTRICTED TRUE
   SYM_IGNORE  TRUE
   GEOM_OPT_MAX_CYCLES 400
   SCF_MAX_CYCLES 400
   METHOD   B3LYP
   BASIS   6-31G**
   PDB_PRINT 2
   SCF_CONVERGENCE 6
   THRESH 14
   SCF_PRINT 1
$end
$molecule
0 1
C -1.722899 1.274509 0.097042
C -1.139650 0.000000 -0.511627
Se 0.837011 0.000000 -0.514264
H 0.904570 0.000000 2.484975
C -1.722899 -1.274509 0.097042
H -1.309213 2.172423 -0.366970
H -2.812557 1.285858 -0.030820
H -1.505499 1.314033 1.169439
H -1.323391 0.000000 -1.599974
H -2.812557 -1.285858 -0.030820
H -1.309213 -2.172423 -0.366970
H -1.505499 -1.314033 1.169439
$end
$scan
stre 3 4 3.100000 3.101000 0.100000
$end
