
$comment
	potential surface scanner
$end

$rem
   JOBTYPE  PES_SCAN
   UNRESTRICTED TRUE
   SYM_IGNORE  TRUE
   GEOM_OPT_MAX_CYCLES 400
   SCF_MAX_CYCLES 400
   METHOD   B3LYP
   BASIS   6-31G**
   PDB_PRINT 2
   SCF_CONVERGENCE 6
   THRESH 14
   SCF_PRINT 1
$end
$molecule
0 1
C -1.728805 1.274475 0.102805
C -1.130577 0.000000 -0.491133
Se 0.847788 0.000000 -0.444063
H 0.916663 0.000000 2.355089
C -1.728805 -1.274475 0.102805
H -1.310680 2.172195 -0.357952
H -2.816113 1.281632 -0.043445
H -1.530407 1.320312 1.178636
H -1.283661 0.000000 -1.583487
H -2.816113 -1.281632 -0.043445
H -1.310680 -2.172195 -0.357952
H -1.530407 -1.320312 1.178636
$end
$scan
stre 3 4 2.900000 2.901000 0.100000
$end
