
$comment
	potential surface scanner
$end

$rem
   JOBTYPE  PES_SCAN
   UNRESTRICTED TRUE
   SYM_IGNORE  TRUE
   GEOM_OPT_MAX_CYCLES 400
   SCF_MAX_CYCLES 400
   METHOD   B3LYP
   BASIS   6-31G**
   PDB_PRINT 2
   SCF_CONVERGENCE 6
   THRESH 14
   SCF_PRINT 1
$end
$molecule
0 1
C -1.725714 1.274447 0.100003
C -1.135130 0.000000 -0.501236
Se 0.842700 0.000000 -0.479437
H 0.910615 0.000000 2.419768
C -1.725714 -1.274447 0.100003
H -1.309637 2.172194 -0.362239
H -2.814238 1.283708 -0.037498
H -1.518317 1.317053 1.174264
H -1.304169 0.000000 -1.591662
H -2.814238 -1.283708 -0.037498
H -1.309637 -2.172194 -0.362239
H -1.518317 -1.317053 1.174264
$end
$scan
stre 3 4 3.000000 3.001000 0.100000
$end
