
$comment
	potential surface scanner
$end

$rem
   JOBTYPE  PES_SCAN
   UNRESTRICTED TRUE
   SYM_IGNORE  TRUE
   GEOM_OPT_MAX_CYCLES 400
   SCF_MAX_CYCLES 400
   METHOD   B3LYP
   BASIS   6-31G**
   PDB_PRINT 2
   SCF_CONVERGENCE 6
   THRESH 14
   SCF_PRINT 1
$end
$molecule
0 1
C -1.720070 1.274498 0.093983
C -1.144031 0.000000 -0.522193
Se 0.831310 0.000000 -0.548742
H 0.897493 0.000000 2.550551
C -1.720070 -1.274498 0.093983
H -1.309423 2.172533 -0.372483
H -2.810853 1.287524 -0.023292
H -1.491835 1.311468 1.164347
H -1.342207 0.000000 -1.608235
H -2.810853 -1.287524 -0.023292
H -1.309423 -2.172533 -0.372483
H -1.491835 -1.311468 1.164347
$end
$scan
stre 3 4 3.200000 3.201000 0.100000
$end
