
$comment
	potential surface scanner
$end

$rem
   JOBTYPE  PES_SCAN
   UNRESTRICTED TRUE
   SYM_IGNORE  TRUE
   GEOM_OPT_MAX_CYCLES 400
   SCF_MAX_CYCLES 400
   METHOD   B3LYP
   BASIS   6-31G**
   PDB_PRINT 2
   SCF_CONVERGENCE 6
   THRESH 14
   SCF_PRINT 1
$end
$molecule
0 1
C -1.732548 1.272894 0.148699
C -1.078563 0.000000 -0.385770
Se 0.902303 0.000000 -0.079176
H 0.785740 0.000000 1.516572
C -1.732548 -1.272894 0.148699
H -1.268046 2.170399 -0.265881
H -2.799215 1.284108 -0.109784
H -1.655661 1.324983 1.240084
H -1.120337 0.000000 -1.481362
H -2.799215 -1.284108 -0.109784
H -1.268046 -2.170399 -0.265881
H -1.655661 -1.324983 1.240084
$end
$scan
stre 3 4 1.700000 1.701000 0.100000
$end
