
$comment
	potential surface scanner
$end

$rem
   JOBTYPE  PES_SCAN
   UNRESTRICTED TRUE
   SYM_IGNORE  TRUE
   GEOM_OPT_MAX_CYCLES 400
   SCF_MAX_CYCLES 400
   METHOD   B3LYP
   BASIS   6-31G**
   PDB_PRINT 2
   SCF_CONVERGENCE 6
   THRESH 14
   SCF_PRINT 1
$end
$molecule
0 1
C -1.733526 1.272993 0.133491
C -1.096031 0.000000 -0.419067
Se 0.887579 0.000000 -0.202661
H 0.842326 0.000000 1.796827
C -1.733526 -1.272993 0.133491
H -1.283164 2.170878 -0.295591
H -2.807781 1.282543 -0.090782
H -1.618421 1.322224 1.221279
H -1.169886 0.000000 -1.515398
H -2.807781 -1.282543 -0.090782
H -1.283164 -2.170878 -0.295591
H -1.618421 -1.322224 1.221279
$end
$scan
stre 3 4 2.100000 2.101000 0.100000
$end
