
$comment
	potential surface scanner
$end

$rem
   JOBTYPE  PES_SCAN
   UNRESTRICTED TRUE
   SYM_IGNORE  TRUE
   GEOM_OPT_MAX_CYCLES 400
   SCF_MAX_CYCLES 400
   METHOD   B3LYP
   BASIS   6-31G**
   PDB_PRINT 2
   SCF_CONVERGENCE 6
   THRESH 14
   SCF_PRINT 1
$end
$molecule
0 1
C -1.734322 1.272930 0.137283
C -1.091512 0.000000 -0.409534
Se 0.891897 0.000000 -0.172119
H 0.835927 0.000000 1.727056
C -1.734322 -1.272930 0.137283
H -1.279990 2.170688 -0.287828
H -2.806426 1.282537 -0.097156
H -1.630351 1.323152 1.226228
H -1.155929 0.000000 -1.505963
H -2.806426 -1.282537 -0.097156
H -1.279990 -2.170688 -0.287828
H -1.630351 -1.323152 1.226228
$end
$scan
stre 3 4 2.000000 2.001000 0.100000
$end
