
$comment
	potential surface scanner
$end

$rem
   JOBTYPE  PES_SCAN
   UNRESTRICTED TRUE
   SYM_IGNORE  TRUE
   GEOM_OPT_MAX_CYCLES 400
   SCF_MAX_CYCLES 400
   METHOD   B3LYP
   BASIS   6-31G**
   PDB_PRINT 2
   SCF_CONVERGENCE 6
   THRESH 14
   SCF_PRINT 1
$end
$molecule
0 1
C -1.716806 1.274444 0.091048
C -1.148192 0.000000 -0.532446
Se 0.825656 0.000000 -0.584091
H 0.887801 0.000000 2.615305
C -1.716806 -1.274444 0.091048
H -1.309877 2.172691 -0.378181
H -2.808697 1.288617 -0.015157
H -1.477657 1.309086 1.159140
H -1.360989 0.000000 -1.615977
H -2.808697 -1.288617 -0.015157
H -1.309877 -2.172691 -0.378181
H -1.477657 -1.309086 1.159140
$end
$scan
stre 3 4 3.300000 3.301000 0.100000
$end
