
$comment
	potential surface scanner
$end

$rem
   JOBTYPE  PES_SCAN
   UNRESTRICTED TRUE
   SYM_IGNORE  TRUE
   GEOM_OPT_MAX_CYCLES 400
   SCF_MAX_CYCLES 400
   METHOD   B3LYP
   BASIS   6-31G**
   PDB_PRINT 2
   SCF_CONVERGENCE 6
   THRESH 14
   SCF_PRINT 1
$end
$molecule
0 1
C -1.732550 1.273314 0.121696
C -1.108737 0.000000 -0.446010
Se 0.873855 0.000000 -0.292428
H 0.871733 0.000000 2.007570
C -1.732550 -1.273314 0.121696
H -1.294424 2.171288 -0.319608
H -2.812425 1.281432 -0.072932
H -1.585031 1.320874 1.205552
H -1.209787 0.000000 -1.542054
H -2.812425 -1.281432 -0.072932
H -1.294424 -2.171288 -0.319608
H -1.585031 -1.320874 1.205552
$end
$scan
stre 3 4 2.400000 2.401000 0.100000
$end
