
$comment
	potential surface scanner
$end

$rem
   JOBTYPE  PES_SCAN
   UNRESTRICTED TRUE
   SYM_IGNORE  TRUE
   GEOM_OPT_MAX_CYCLES 400
   SCF_MAX_CYCLES 400
   METHOD   B3LYP
   BASIS   6-31G**
   PDB_PRINT 2
   SCF_CONVERGENCE 6
   THRESH 14
   SCF_PRINT 1
$end
$molecule
0 1
C -1.703725 1.274388 0.082681
C -1.158382 0.000000 -0.562176
Se 0.809507 0.000000 -0.693203
H 0.827179 0.000000 2.806752
C -1.703725 -1.274388 0.082681
H -1.319146 2.173234 -0.403803
H -2.799080 1.285043 0.022159
H -1.420838 1.309838 1.139986
H -1.414523 0.000000 -1.636927
H -2.799080 -1.285043 0.022159
H -1.319146 -2.173234 -0.403803
H -1.420838 -1.309838 1.139986
$end
$scan
stre 3 4 3.600000 3.601000 0.100000
$end
