
$comment
	potential surface scanner
$end

$rem
   JOBTYPE  PES_SCAN
   UNRESTRICTED TRUE
   SYM_IGNORE  TRUE
   GEOM_OPT_MAX_CYCLES 400
   SCF_MAX_CYCLES 400
   METHOD   B3LYP
   BASIS   6-31G**
   PDB_PRINT 2
   SCF_CONVERGENCE 6
   THRESH 14
   SCF_PRINT 1
$end
$molecule
0 1
C -1.732234 1.273981 0.110011
C -1.121995 0.000000 -0.471674
Se 0.858006 0.000000 -0.381552
H 0.914256 0.000000 2.217839
C -1.732234 -1.273981 0.110011
H -1.304706 2.171776 -0.341891
H -2.816319 1.281382 -0.058836
H -1.557255 1.320389 1.189829
H -1.251035 0.000000 -1.566347
H -2.816319 -1.281382 -0.058836
H -1.304706 -2.171776 -0.341891
H -1.557255 -1.320389 1.189829
$end
$scan
stre 3 4 2.700000 2.701000 0.100000
$end
