
$comment
	potential surface scanner
$end

$rem
   JOBTYPE  PES_SCAN
   UNRESTRICTED TRUE
   SYM_IGNORE  TRUE
   GEOM_OPT_MAX_CYCLES 400
   SCF_MAX_CYCLES 400
   METHOD   B3LYP
   BASIS   6-31G**
   PDB_PRINT 2
   SCF_CONVERGENCE 6
   THRESH 14
   SCF_PRINT 1
$end
$molecule
0 3
C -1.673744 1.273025 0.088545
C -1.160554 -0.000005 -0.584330
Se 0.793634 -0.000003 -0.825344
H 0.609323 0.000031 2.870062
C -1.673753 -1.273032 0.088534
H -1.309718 2.174026 -0.409716
H -2.770543 1.285488 0.078987
H -1.340827 1.299354 1.132560
H -1.474495 0.000009 -1.644599
H -2.770551 -1.285492 0.078970
H -1.309729 -2.174033 -0.409728
H -1.340841 -1.299366 1.132550
$end
$scan
stre 3 4 4.500000 4.501000 0.100000
$end
