
$comment
	potential surface scanner
$end

$rem
   JOBTYPE  PES_SCAN
   UNRESTRICTED TRUE
   SYM_IGNORE  TRUE
   GEOM_OPT_MAX_CYCLES 400
   SCF_MAX_CYCLES 400
   METHOD   B3LYP
   BASIS   6-31G**
   PDB_PRINT 2
   SCF_CONVERGENCE 6
   THRESH 14
   SCF_PRINT 1
$end
$molecule
0 1
C -1.730710 1.274220 0.106391
C -1.126306 0.000000 -0.481290
Se 0.852904 0.000000 -0.412701
H 0.916957 0.000000 2.286539
C -1.730710 -1.274220 0.106391
H -1.307605 2.171975 -0.349728
H -2.816402 1.281588 -0.051580
H -1.544411 1.320229 1.184353
H -1.267095 0.000000 -1.574928
H -2.816402 -1.281588 -0.051580
H -1.307605 -2.171975 -0.349728
H -1.544411 -1.320229 1.184353
$end
$scan
stre 3 4 2.800000 2.801000 0.100000
$end
