
$comment
	potential surface scanner
$end

$rem
   JOBTYPE  PES_SCAN
   UNRESTRICTED TRUE
   SYM_IGNORE  TRUE
   GEOM_OPT_MAX_CYCLES 400
   SCF_MAX_CYCLES 400
   METHOD   B3LYP
   BASIS   6-31G**
   PDB_PRINT 2
   SCF_CONVERGENCE 6
   THRESH 14
   SCF_PRINT 1
$end
$molecule
0 1
C -1.732507 1.273024 0.129690
C -1.100244 0.000000 -0.428927
Se 0.883878 0.000000 -0.233284
H 0.845793 0.000000 1.866371
C -1.732507 -1.273024 0.129690
H -1.286538 2.171113 -0.303515
H -2.808951 1.282402 -0.083628
H -1.605560 1.321294 1.216174
H -1.184110 0.000000 -1.525107
H -2.808951 -1.282402 -0.083628
H -1.286538 -2.171113 -0.303515
H -1.605560 -1.321294 1.216174
$end
$scan
stre 3 4 2.200000 2.201000 0.100000
$end
