
$comment
	potential surface scanner
$end

$rem
   JOBTYPE  PES_SCAN
   UNRESTRICTED TRUE
   SYM_IGNORE  TRUE
   GEOM_OPT_MAX_CYCLES 400
   SCF_MAX_CYCLES 400
   METHOD   B3LYP
   BASIS   6-31G**
   PDB_PRINT 2
   SCF_CONVERGENCE 6
   THRESH 14
   SCF_PRINT 1
$end
$molecule
0 1
C -1.732642 1.273150 0.152534
C -1.074808 0.000000 -0.376825
Se 0.903779 0.000000 -0.048196
H 0.776525 0.000000 1.446396
C -1.732642 -1.273150 0.152534
H -1.263686 2.170227 -0.257952
H -2.796923 1.285310 -0.115623
H -1.666294 1.325886 1.244658
H -1.108204 0.000000 -1.472110
H -2.796923 -1.285310 -0.115623
H -1.263686 -2.170227 -0.257952
H -1.666294 -1.325886 1.244658
$end
$scan
stre 3 4 1.600000 1.601000 0.100000
$end
