
$comment
	potential surface scanner
$end

$rem
   JOBTYPE  PES_SCAN
   UNRESTRICTED TRUE
   SYM_IGNORE  TRUE
   GEOM_OPT_MAX_CYCLES 400
   SCF_MAX_CYCLES 400
   METHOD   B3LYP
   BASIS   6-31G**
   PDB_PRINT 2
   SCF_CONVERGENCE 6
   THRESH 14
   SCF_PRINT 1
$end
$molecule
0 1
C -1.713006 1.273965 0.086224
C -1.149595 0.000000 -0.543465
Se 0.822971 0.000000 -0.610988
H 0.864570 0.000000 2.688750
C -1.713006 -1.273965 0.086224
H -1.326945 2.173511 -0.398191
H -2.807259 1.277295 0.008098
H -1.447426 1.316956 1.147580
H -1.370474 0.000000 -1.625226
H -2.807259 -1.277295 0.008098
H -1.326945 -2.173511 -0.398191
H -1.447426 -1.316956 1.147580
$end
$scan
stre 3 4 3.400000 3.401000 0.100000
$end
