
$comment
	potential surface scanner
$end

$rem
   JOBTYPE  PES_SCAN
   UNRESTRICTED TRUE
   SYM_IGNORE  TRUE
   GEOM_OPT_MAX_CYCLES 400
   SCF_MAX_CYCLES 400
   METHOD   B3LYP
   BASIS   6-31G**
   PDB_PRINT 2
   SCF_CONVERGENCE 6
   THRESH 14
   SCF_PRINT 1
$end
$molecule
0 1
C -1.732308 1.273107 0.125690
C -1.104399 0.000000 -0.437810
Se 0.879221 0.000000 -0.263000
H 0.856049 0.000000 1.936878
C -1.732308 -1.273107 0.125690
H -1.290489 2.171191 -0.311701
H -2.810623 1.281826 -0.077625
H -1.594294 1.320863 1.210830
H -1.197238 0.000000 -1.533961
H -2.810623 -1.281826 -0.077625
H -1.290489 -2.171191 -0.311701
H -1.594294 -1.320863 1.210830
$end
$scan
stre 3 4 2.300000 2.301000 0.100000
$end
