
$comment
	potential surface scanner
$end

$rem
   JOBTYPE  PES_SCAN
   UNRESTRICTED TRUE
   SYM_IGNORE  TRUE
   GEOM_OPT_MAX_CYCLES 400
   SCF_MAX_CYCLES 400
   METHOD   B3LYP
   BASIS   6-31G**
   PDB_PRINT 2
   SCF_CONVERGENCE 6
   THRESH 14
   SCF_PRINT 1
$end
$molecule
0 1
S 2.393399 -0.032877 1.129718
S -2.556437 -0.323749 -0.391841
C 0.192968 -0.327591 -0.504781
C 1.562038 -0.894930 -0.298871
C -0.924106 -1.013054 -0.239658
H -1.226880 3.244074 1.568929
H 0.138048 0.696347 -0.868903
H 1.515261 -1.966841 -0.092201
H 2.182306 -0.732331 -1.185115
H -0.876997 -2.031406 0.137168
H -3.210493 -1.497728 -0.471212
H 3.655209 -0.399162 0.823646
H -1.736113 2.702851 1.572023
$end
$scan
stre 2 13 3.800000 3.801000 0.100000
$end
