
$comment
	potential surface scanner
$end

$rem
   JOBTYPE  PES_SCAN
   UNRESTRICTED TRUE
   SYM_IGNORE  TRUE
   GEOM_OPT_MAX_CYCLES 400
   SCF_MAX_CYCLES 400
   METHOD   B3LYP
   BASIS   6-31G**
   PDB_PRINT 2
   SCF_CONVERGENCE 6
   THRESH 14
   SCF_PRINT 1
$end
$molecule
0 3
S 2.672664 0.510326 0.401183
S -2.887692 -0.037465 0.038478
C -0.054635 0.131603 0.148886
C 1.272363 -0.609097 -0.043455
C -1.243081 -0.774822 -0.190380
H -0.145579 0.478003 1.183472
H -0.080918 1.023286 -0.485881
H 1.307297 -1.496832 0.595334
H 1.386183 -0.927004 -1.084260
H -1.238931 -1.679681 0.434677
H -1.192531 -1.134499 -1.226656
H 3.663797 -0.362589 0.133368
H -2.350736 2.302370 1.274135
$end
$scan
stre 2 13 2.600000 2.601000 0.100000
$end
