
$comment
	potential surface scanner
$end

$rem
   JOBTYPE  PES_SCAN
   UNRESTRICTED TRUE
   SYM_IGNORE  TRUE
   GEOM_OPT_MAX_CYCLES 400
   SCF_MAX_CYCLES 400
   METHOD   B3LYP
   BASIS   6-31G**
   PDB_PRINT 2
   SCF_CONVERGENCE 6
   THRESH 14
   SCF_PRINT 1
$end
$molecule
0 1
S 2.651839 0.582856 0.084495
S -2.875197 0.053899 -0.386977
C -0.070592 0.170403 -0.093582
C 1.243241 -0.610230 0.001277
C -1.279902 -0.769583 -0.195052
H -0.205918 0.802983 0.794251
H -0.053708 0.839513 -0.960375
H 1.254224 -1.235626 0.898529
H 1.371442 -1.254736 -0.873440
H -1.316714 -1.474904 0.641309
H -1.192773 -1.372396 -1.116795
H 3.623888 -0.333725 0.260399
H -2.041625 2.025147 2.124863
$end
$scan
stre 2 13 3.400000 3.401000 0.100000
$end
