
$comment
	potential surface scanner
$end

$rem
   JOBTYPE  PES_SCAN
   UNRESTRICTED TRUE
   SYM_IGNORE  TRUE
   GEOM_OPT_MAX_CYCLES 400
   SCF_MAX_CYCLES 400
   METHOD   B3LYP
   BASIS   6-31G**
   PDB_PRINT 2
   SCF_CONVERGENCE 6
   THRESH 14
   SCF_PRINT 1
$end
$molecule
0 1
S 2.406195 -0.035446 1.125592
S -2.548085 -0.291506 -0.378708
C 0.200299 -0.318912 -0.503049
C 1.565677 -0.895664 -0.298773
C -0.921156 -0.994099 -0.230144
H -1.254433 3.193237 1.552098
H 0.151917 0.703716 -0.871798
H 1.511669 -1.966614 -0.088967
H 2.185119 -0.739929 -1.186796
H -0.880941 -2.010881 0.151648
H -3.213031 -1.459772 -0.452089
H 3.665108 -0.409266 0.816594
H -1.760135 2.648740 1.543293
$end
$scan
stre 2 13 3.700000 3.701000 0.100000
$end
