
$comment
	potential surface scanner
$end

$rem
   JOBTYPE  PES_SCAN
   UNRESTRICTED TRUE
   SYM_IGNORE  TRUE
   GEOM_OPT_MAX_CYCLES 400
   SCF_MAX_CYCLES 400
   METHOD   B3LYP
   BASIS   6-31G**
   PDB_PRINT 2
   SCF_CONVERGENCE 6
   THRESH 14
   SCF_PRINT 1
$end
$molecule
0 1
S 2.661018 0.575720 0.074716
S -2.870546 0.073646 -0.364575
C -0.064314 0.174937 -0.089706
C 1.246296 -0.611225 0.000891
C -1.277347 -0.759656 -0.185629
H -0.193373 0.807524 0.799087
H -0.048335 0.844809 -0.955981
H 1.258313 -1.234116 0.899915
H 1.368448 -1.259042 -0.872190
H -1.313096 -1.465091 0.650266
H -1.200660 -1.360081 -1.109587
H 3.629515 -0.344887 0.249040
H -2.087715 1.981063 2.082655
$end
$scan
stre 2 13 3.300000 3.301000 0.100000
$end
