
$comment
	potential surface scanner
$end

$rem
   JOBTYPE  PES_SCAN
   UNRESTRICTED TRUE
   SYM_IGNORE  TRUE
   GEOM_OPT_MAX_CYCLES 400
   SCF_MAX_CYCLES 400
   METHOD   B3LYP
   BASIS   6-31G**
   PDB_PRINT 2
   SCF_CONVERGENCE 6
   THRESH 14
   SCF_PRINT 1
$end
$molecule
0 3
S 2.602432 0.631123 0.198618
S -2.905993 -0.007458 -0.529855
C -0.101133 0.178296 -0.162576
C 1.212503 -0.577613 0.058162
C -1.276620 -0.789444 -0.337302
H -0.300728 0.844657 0.683780
H -0.018298 0.812734 -1.052074
H 1.161351 -1.171774 0.975457
H 1.410079 -1.252079 -0.780524
H -1.378868 -1.448211 0.538322
H -1.121212 -1.458992 -1.192459
H 3.583984 -0.274728 0.377690
H -1.759294 1.937091 2.401665
$end
$scan
stre 2 13 3.600000 3.601000 0.100000
$end
