
$comment
	potential surface scanner
$end

$rem
   JOBTYPE  PES_SCAN
   UNRESTRICTED TRUE
   SYM_IGNORE  TRUE
   GEOM_OPT_MAX_CYCLES 400
   SCF_MAX_CYCLES 400
   METHOD   B3LYP
   BASIS   6-31G**
   PDB_PRINT 2
   SCF_CONVERGENCE 6
   THRESH 14
   SCF_PRINT 1
$end
$molecule
0 3
S 2.685233 0.492305 0.408639
S -2.902570 0.032592 0.110393
C -0.052327 0.179896 0.200975
C 1.253335 -0.584622 -0.039044
C -1.260789 -0.700873 -0.138304
H -0.115431 0.503383 1.244286
H -0.075065 1.088006 -0.408945
H 1.282211 -1.491057 0.573491
H 1.340036 -0.875103 -1.090573
H -1.260197 -1.621821 0.462337
H -1.232214 -1.036015 -1.184143
H 3.651513 -0.395977 0.102908
H -2.205536 1.832885 0.936885
$end
$scan
stre 2 13 2.000000 2.001000 0.100000
$end
