
$comment
	potential surface scanner
$end

$rem
   JOBTYPE  PES_SCAN
   UNRESTRICTED TRUE
   SYM_IGNORE  TRUE
   GEOM_OPT_MAX_CYCLES 400
   SCF_MAX_CYCLES 400
   METHOD   B3LYP
   BASIS   6-31G**
   PDB_PRINT 2
   SCF_CONVERGENCE 6
   THRESH 14
   SCF_PRINT 1
$end
$molecule
0 1
S 2.782633 0.454951 -0.015085
S -2.804647 0.443579 -0.013694
C 0.025242 0.275224 0.014505
C 1.273425 -0.612595 -0.001459
C -1.258297 -0.558832 0.027221
H 0.051936 0.923892 0.898254
H 0.022277 0.932187 -0.861611
H 1.300804 -1.254318 0.884079
H 1.279781 -1.248264 -0.891687
H -1.292068 -1.227007 0.892939
H -1.321072 -1.186152 -0.867480
H 3.684941 -0.546211 -0.022851
H -2.636755 1.027145 1.135768
$end
$scan
stre 2 13 1.400000 1.401000 0.100000
$end
