
$comment
	potential surface scanner
$end

$rem
   JOBTYPE  PES_SCAN
   UNRESTRICTED TRUE
   SYM_IGNORE  TRUE
   GEOM_OPT_MAX_CYCLES 400
   SCF_MAX_CYCLES 400
   METHOD   B3LYP
   BASIS   6-31G**
   PDB_PRINT 2
   SCF_CONVERGENCE 6
   THRESH 14
   SCF_PRINT 1
$end
$molecule
0 1
S 2.742428 0.502687 0.032825
S -2.825782 0.239381 -0.248406
C -0.001344 0.217590 -0.067113
C 1.277604 -0.623111 -0.014463
C -1.254536 -0.660783 -0.086878
H -0.051401 0.875461 0.808687
H 0.006314 0.862954 -0.951543
H 1.285635 -1.254398 0.878858
H 1.351378 -1.267475 -0.895612
H -1.297124 -1.326687 0.780244
H -1.256366 -1.304973 -0.981518
H 3.680989 -0.461514 0.109398
H -2.549593 1.624470 1.814420
$end
$scan
stre 2 13 2.600000 2.601000 0.100000
$end
