
$comment
	potential surface scanner
$end

$rem
   JOBTYPE  PES_SCAN
   UNRESTRICTED TRUE
   SYM_IGNORE  TRUE
   GEOM_OPT_MAX_CYCLES 400
   SCF_MAX_CYCLES 400
   METHOD   B3LYP
   BASIS   6-31G**
   PDB_PRINT 2
   SCF_CONVERGENCE 6
   THRESH 14
   SCF_PRINT 1
$end
$molecule
0 3
S 2.616666 0.563951 0.413122
S -2.912808 -0.149873 -0.063716
C -0.090883 0.093744 0.107170
C 1.262361 -0.608395 -0.038825
C -1.245642 -0.852974 -0.237883
H -0.216130 0.459374 1.132089
H -0.129408 0.970426 -0.548017
H 1.310646 -1.481025 0.619555
H 1.410456 -0.944092 -1.069678
H -1.231876 -1.743535 0.407081
H -1.161798 -1.234073 -1.264298
H 3.641140 -0.281212 0.184482
H -2.144524 2.631283 1.537818
$end
$scan
stre 2 13 3.200000 3.201000 0.100000
$end
