
$comment
	potential surface scanner
$end

$rem
   JOBTYPE  PES_SCAN
   UNRESTRICTED TRUE
   SYM_IGNORE  TRUE
   GEOM_OPT_MAX_CYCLES 400
   SCF_MAX_CYCLES 400
   METHOD   B3LYP
   BASIS   6-31G**
   PDB_PRINT 2
   SCF_CONVERGENCE 6
   THRESH 14
   SCF_PRINT 1
$end
$molecule
0 3
S 2.624115 0.557024 0.412543
S -2.909960 -0.132253 -0.045957
C -0.086294 0.099361 0.114932
C 1.263411 -0.607929 -0.039198
C -1.246260 -0.840830 -0.230401
H -0.206166 0.460776 1.141942
H -0.123307 0.979143 -0.536116
H 1.310525 -1.483476 0.615395
H 1.406256 -0.939976 -1.071978
H -1.233819 -1.734568 0.410235
H -1.167894 -1.217284 -1.258940
H 3.644252 -0.291407 0.176759
H -2.166657 2.575017 1.489683
$end
$scan
stre 2 13 3.100000 3.101000 0.100000
$end
