
$comment
	potential surface scanner
$end

$rem
   JOBTYPE  PES_SCAN
   UNRESTRICTED TRUE
   SYM_IGNORE  TRUE
   GEOM_OPT_MAX_CYCLES 400
   SCF_MAX_CYCLES 400
   METHOD   B3LYP
   BASIS   6-31G**
   PDB_PRINT 2
   SCF_CONVERGENCE 6
   THRESH 14
   SCF_PRINT 1
$end
$molecule
0 3
S 2.608563 0.571209 0.413207
S -2.915701 -0.166412 -0.083497
C -0.095904 0.088114 0.099102
C 1.261020 -0.608986 -0.038511
C -1.245083 -0.864610 -0.245172
H -0.225596 0.458635 1.121629
H -0.134369 0.961099 -0.561018
H 1.310991 -1.478257 0.624109
H 1.414305 -0.949028 -1.067250
H -1.230632 -1.751829 0.404528
H -1.154795 -1.251817 -1.268719
H 3.637586 -0.270451 0.192323
H -2.122184 2.685932 1.588169
$end
$scan
stre 2 13 3.300000 3.301000 0.100000
$end
