
$comment
	potential surface scanner
$end

$rem
   JOBTYPE  PES_SCAN
   UNRESTRICTED TRUE
   SYM_IGNORE  TRUE
   GEOM_OPT_MAX_CYCLES 400
   SCF_MAX_CYCLES 400
   METHOD   B3LYP
   BASIS   6-31G**
   PDB_PRINT 2
   SCF_CONVERGENCE 6
   THRESH 14
   SCF_PRINT 1
$end
$molecule
0 3
S 2.670353 0.511339 0.405638
S -2.891976 -0.029198 0.055476
C -0.057738 0.137361 0.160720
C 1.267737 -0.603344 -0.043108
C -1.248173 -0.765671 -0.180355
H -0.143902 0.476034 1.198366
H -0.086066 1.033627 -0.467242
H 1.304604 -1.496572 0.587913
H 1.377026 -0.912482 -1.087059
H -1.242598 -1.676594 0.435689
H -1.202912 -1.116912 -1.220051
H 3.659683 -0.361570 0.131164
H -2.297838 2.227582 1.201752
$end
$scan
stre 2 13 2.500000 2.501000 0.100000
$end
