
$comment
	potential surface scanner
$end

$rem
   JOBTYPE  PES_SCAN
   UNRESTRICTED TRUE
   SYM_IGNORE  TRUE
   GEOM_OPT_MAX_CYCLES 400
   SCF_MAX_CYCLES 400
   METHOD   B3LYP
   BASIS   6-31G**
   PDB_PRINT 2
   SCF_CONVERGENCE 6
   THRESH 14
   SCF_PRINT 1
$end
$molecule
0 1
S 2.722418 0.521527 0.040579
S -2.834316 0.184266 -0.297922
C -0.015835 0.201259 -0.085757
C 1.272682 -0.623025 -0.014602
C -1.257962 -0.694101 -0.123669
H -0.090712 0.858450 0.789098
H -0.004455 0.847109 -0.969911
H 1.279340 -1.248172 0.883007
H 1.363035 -1.272164 -0.890678
H -1.300776 -1.366577 0.738693
H -1.235706 -1.334459 -1.022195
H 3.670243 -0.429084 0.159083
H -2.459752 1.778573 1.973176
$end
$scan
stre 2 13 2.900000 2.901000 0.100000
$end
