
$comment
	potential surface scanner
$end

$rem
   JOBTYPE  PES_SCAN
   UNRESTRICTED TRUE
   SYM_IGNORE  TRUE
   GEOM_OPT_MAX_CYCLES 400
   SCF_MAX_CYCLES 400
   METHOD   B3LYP
   BASIS   6-31G**
   PDB_PRINT 2
   SCF_CONVERGENCE 6
   THRESH 14
   SCF_PRINT 1
$end
$molecule
0 1
S 2.754763 0.489950 0.026281
S -2.822174 0.289902 -0.195304
C 0.006791 0.231236 -0.044992
C 1.278617 -0.621599 -0.013987
C -1.254344 -0.634645 -0.053535
H -0.021521 0.885744 0.834194
H 0.009743 0.880851 -0.926365
H 1.291157 -1.261012 0.873523
H 1.336477 -1.258595 -0.901583
H -1.296522 -1.296530 0.816250
H -1.274956 -1.277596 -0.946470
H 3.685683 -0.483781 0.070865
H -2.585511 1.479678 1.640022
$end
$scan
stre 2 13 2.300000 2.301000 0.100000
$end
