
$comment
	potential surface scanner
$end

$rem
   JOBTYPE  PES_SCAN
   UNRESTRICTED TRUE
   SYM_IGNORE  TRUE
   GEOM_OPT_MAX_CYCLES 400
   SCF_MAX_CYCLES 400
   METHOD   B3LYP
   BASIS   6-31G**
   PDB_PRINT 2
   SCF_CONVERGENCE 6
   THRESH 14
   SCF_PRINT 1
$end
$molecule
0 1
S 2.418688 -0.039210 1.122016
S -2.539107 -0.259148 -0.364849
C 0.207698 -0.310599 -0.501307
C 1.569436 -0.896553 -0.298951
C -0.917939 -0.975563 -0.220567
H -1.282699 3.143196 1.534986
H 0.165402 0.710699 -0.874605
H 1.508461 -1.966672 -0.086837
H 2.188112 -0.746803 -1.188486
H -0.884574 -1.990779 0.165935
H -3.215591 -1.421162 -0.432597
H 3.674936 -0.419300 0.809719
H -1.784619 2.595498 1.514446
$end
$scan
stre 2 13 3.600000 3.601000 0.100000
$end
