
$comment
	potential surface scanner
$end

$rem
   JOBTYPE  PES_SCAN
   UNRESTRICTED TRUE
   SYM_IGNORE  TRUE
   GEOM_OPT_MAX_CYCLES 400
   SCF_MAX_CYCLES 400
   METHOD   B3LYP
   BASIS   6-31G**
   PDB_PRINT 2
   SCF_CONVERGENCE 6
   THRESH 14
   SCF_PRINT 1
$end
$molecule
0 1
S 2.764670 0.477692 0.017897
S -2.820168 0.349553 -0.117946
C 0.012408 0.247860 -0.011896
C 1.276033 -0.617719 -0.012615
C -1.256830 -0.606233 -0.012385
H 0.010164 0.892797 0.875054
H 0.008461 0.907975 -0.885491
H 1.296801 -1.269553 0.865677
H 1.312369 -1.242743 -0.909718
H -1.294550 -1.269308 0.856608
H -1.295090 -1.242634 -0.905917
H 3.685848 -0.506271 0.027479
H -2.591914 1.302183 1.392152
$end
$scan
stre 2 13 1.900000 1.901000 0.100000
$end
