
$comment
	potential surface scanner
$end

$rem
   JOBTYPE  PES_SCAN
   UNRESTRICTED TRUE
   SYM_IGNORE  TRUE
   GEOM_OPT_MAX_CYCLES 400
   SCF_MAX_CYCLES 400
   METHOD   B3LYP
   BASIS   6-31G**
   PDB_PRINT 2
   SCF_CONVERGENCE 6
   THRESH 14
   SCF_PRINT 1
$end
$molecule
0 3
S 2.582039 0.644885 0.217489
S -2.911048 -0.040174 -0.584447
C -0.114290 0.169160 -0.169605
C 1.204056 -0.575617 0.061420
C -1.279654 -0.807820 -0.355129
H -0.325159 0.831486 0.677229
H -0.030094 0.806606 -1.056670
H 1.149860 -1.172230 0.976937
H 1.415543 -1.246510 -0.776760
H -1.386557 -1.469301 0.517252
H -1.109464 -1.476378 -1.209022
H 3.571223 -0.253068 0.394351
H -1.658254 2.012563 2.485858
$end
$scan
stre 2 13 3.800000 3.801000 0.100000
$end
