
$comment
	potential surface scanner
$end

$rem
   JOBTYPE  PES_SCAN
   UNRESTRICTED TRUE
   SYM_IGNORE  TRUE
   GEOM_OPT_MAX_CYCLES 400
   SCF_MAX_CYCLES 400
   METHOD   B3LYP
   BASIS   6-31G**
   PDB_PRINT 2
   SCF_CONVERGENCE 6
   THRESH 14
   SCF_PRINT 1
$end
$molecule
0 3
S 2.707403 0.467308 0.404583
S -2.927117 0.072820 0.150559
C -0.040029 0.223974 0.235315
C 1.242393 -0.570009 -0.033346
C -1.263304 -0.636942 -0.098170
H -0.079173 0.539308 1.282148
H -0.051948 1.139575 -0.362777
H 1.260556 -1.484156 0.567964
H 1.307729 -0.849709 -1.089298
H -1.271394 -1.566651 0.487831
H -1.255202 -0.959982 -1.148470
H 3.647541 -0.439464 0.071436
H -2.169255 1.487529 0.711133
$end
$scan
stre 2 13 1.600000 1.601000 0.100000
$end
