
$comment
	potential surface scanner
$end

$rem
   JOBTYPE  PES_SCAN
   UNRESTRICTED TRUE
   SYM_IGNORE  TRUE
   GEOM_OPT_MAX_CYCLES 400
   SCF_MAX_CYCLES 400
   METHOD   B3LYP
   BASIS   6-31G**
   PDB_PRINT 2
   SCF_CONVERGENCE 6
   THRESH 14
   SCF_PRINT 1
$end
$molecule
0 3
S 2.674912 0.505130 0.408698
S -2.895425 -0.004223 0.081642
C -0.056768 0.150978 0.180706
C 1.262324 -0.595646 -0.042524
C -1.253841 -0.742388 -0.161665
H -0.131863 0.478762 1.222361
H -0.085472 1.054219 -0.436830
H 1.298760 -1.496694 0.577393
H 1.361726 -0.892859 -1.090952
H -1.249913 -1.660019 0.444189
H -1.215714 -1.083415 -1.205312
H 3.656186 -0.371982 0.119152
H -2.256712 2.081739 1.082045
$end
$scan
stre 2 13 2.300000 2.301000 0.100000
$end
