
$comment
	potential surface scanner
$end

$rem
   JOBTYPE  PES_SCAN
   UNRESTRICTED TRUE
   SYM_IGNORE  TRUE
   GEOM_OPT_MAX_CYCLES 400
   SCF_MAX_CYCLES 400
   METHOD   B3LYP
   BASIS   6-31G**
   PDB_PRINT 2
   SCF_CONVERGENCE 6
   THRESH 14
   SCF_PRINT 1
$end
$molecule
0 3
S 2.612733 0.623534 0.188585
S -2.902792 0.008227 -0.502383
C -0.094825 0.182953 -0.157697
C 1.216492 -0.578918 0.057078
C -1.274613 -0.780322 -0.328640
H -0.288295 0.850319 0.688950
H -0.012041 0.816619 -1.047837
H 1.167158 -1.171513 0.975478
H 1.406557 -1.255427 -0.781674
H -1.374521 -1.438554 0.547993
H -1.124930 -1.448921 -1.185112
H 3.590770 -0.286562 0.365351
H -1.813491 1.902165 2.358810
$end
$scan
stre 2 13 3.500000 3.501000 0.100000
$end
