
$comment
	potential surface scanner
$end

$rem
   JOBTYPE  PES_SCAN
   UNRESTRICTED TRUE
   SYM_IGNORE  TRUE
   GEOM_OPT_MAX_CYCLES 400
   SCF_MAX_CYCLES 400
   METHOD   B3LYP
   BASIS   6-31G**
   PDB_PRINT 2
   SCF_CONVERGENCE 6
   THRESH 14
   SCF_PRINT 1
$end
$molecule
0 1
S 2.781313 0.457184 -0.011460
S -2.807436 0.429923 -0.036376
C 0.024306 0.272048 0.006140
C 1.274292 -0.613355 -0.002570
C -1.257236 -0.564806 0.017180
H 0.045110 0.923056 0.888276
H 0.022993 0.926582 -0.871780
H 1.298721 -1.253444 0.884259
H 1.285812 -1.251123 -0.891292
H -1.292256 -1.230437 0.884655
H -1.316065 -1.195333 -0.876096
H 3.685823 -0.542051 -0.011475
H -2.637176 1.065355 1.199439
$end
$scan
stre 2 13 1.500000 1.501000 0.100000
$end
