
$comment
	potential surface scanner
$end

$rem
   JOBTYPE  PES_SCAN
   UNRESTRICTED TRUE
   SYM_IGNORE  TRUE
   GEOM_OPT_MAX_CYCLES 400
   SCF_MAX_CYCLES 400
   METHOD   B3LYP
   BASIS   6-31G**
   PDB_PRINT 2
   SCF_CONVERGENCE 6
   THRESH 14
   SCF_PRINT 1
$end
$molecule
0 1
S 2.752232 0.492841 0.027931
S -2.822568 0.273866 -0.214129
C 0.005243 0.227258 -0.052461
C 1.278983 -0.622354 -0.014238
C -1.253617 -0.642142 -0.063797
H -0.029582 0.883599 0.825108
H 0.009870 0.874746 -0.935371
H 1.289754 -1.259019 0.875254
H 1.341569 -1.261943 -0.899677
H -1.296385 -1.304578 0.805646
H -1.268606 -1.286305 -0.956796
H 3.685139 -0.478516 0.081195
H -2.583830 1.526150 1.700235
$end
$scan
stre 2 13 2.400000 2.401000 0.100000
$end
