
$comment
	potential surface scanner
$end

$rem
   JOBTYPE  PES_SCAN
   UNRESTRICTED TRUE
   SYM_IGNORE  TRUE
   GEOM_OPT_MAX_CYCLES 400
   SCF_MAX_CYCLES 400
   METHOD   B3LYP
   BASIS   6-31G**
   PDB_PRINT 2
   SCF_CONVERGENCE 6
   THRESH 14
   SCF_PRINT 1
$end
$molecule
0 1
S 2.727987 0.515615 0.036899
S -2.833761 0.199578 -0.281368
C -0.012537 0.207341 -0.078925
C 1.273112 -0.622768 -0.014325
C -1.257147 -0.683113 -0.111125
H -0.076676 0.864373 0.796319
H -0.001725 0.853097 -0.963057
H 1.280310 -1.248963 0.882533
H 1.358290 -1.271353 -0.891373
H -1.299386 -1.355032 0.751573
H -1.240855 -1.322077 -1.010224
H 3.672743 -0.439373 0.144348
H -2.482152 1.726275 1.917625
$end
$scan
stre 2 13 2.800000 2.801000 0.100000
$end
