
$comment
	potential surface scanner
$end

$rem
   JOBTYPE  PES_SCAN
   UNRESTRICTED TRUE
   SYM_IGNORE  TRUE
   GEOM_OPT_MAX_CYCLES 400
   SCF_MAX_CYCLES 400
   METHOD   B3LYP
   BASIS   6-31G**
   PDB_PRINT 2
   SCF_CONVERGENCE 6
   THRESH 14
   SCF_PRINT 1
$end
$molecule
0 3
S 2.653771 0.529141 0.405563
S -2.896317 -0.074707 0.005779
C -0.067235 0.118475 0.134757
C 1.269226 -0.608885 -0.041725
C -1.244451 -0.801405 -0.207254
H -0.170594 0.470827 1.166344
H -0.097497 1.005438 -0.506584
H 1.309044 -1.491499 0.603820
H 1.394809 -0.933032 -1.079245
H -1.236950 -1.701548 0.424553
H -1.182622 -1.168280 -1.240319
H 3.656750 -0.334174 0.150998
H -2.279732 2.413246 1.362213
$end
$scan
stre 2 13 2.800000 2.801000 0.100000
$end
