
$comment
	potential surface scanner
$end

$rem
   JOBTYPE  PES_SCAN
   UNRESTRICTED TRUE
   SYM_IGNORE  TRUE
   GEOM_OPT_MAX_CYCLES 400
   SCF_MAX_CYCLES 400
   METHOD   B3LYP
   BASIS   6-31G**
   PDB_PRINT 2
   SCF_CONVERGENCE 6
   THRESH 14
   SCF_PRINT 1
$end
$molecule
0 3
S 2.642734 0.596473 0.125879
S -2.872136 0.018152 -0.590099
C -0.071291 0.171848 -0.185078
C 1.235836 -0.597060 0.031221
C -1.263210 -0.782087 -0.314205
H -0.241313 0.858248 0.651466
H 0.000709 0.785394 -1.089551
H 1.192671 -1.171718 0.961145
H 1.410552 -1.290931 -0.796657
H -1.366052 -1.424624 0.570164
H -1.127204 -1.471383 -1.160190
H 3.611773 -0.315566 0.338452
H -2.044869 2.046855 2.636354
$end
$scan
stre 2 13 4.000000 4.001000 0.100000
$end
