
$comment
	potential surface scanner
$end

$rem
   JOBTYPE  PES_SCAN
   UNRESTRICTED TRUE
   SYM_IGNORE  TRUE
   GEOM_OPT_MAX_CYCLES 400
   SCF_MAX_CYCLES 400
   METHOD   B3LYP
   BASIS   6-31G**
   PDB_PRINT 2
   SCF_CONVERGENCE 6
   THRESH 14
   SCF_PRINT 1
$end
$molecule
0 3
S 2.682877 0.495549 0.408703
S -2.899249 0.019604 0.101321
C -0.053425 0.170627 0.194153
C 1.256580 -0.588116 -0.040300
C -1.257508 -0.714919 -0.146288
H -0.121045 0.495628 1.236990
H -0.078359 1.077119 -0.418364
H 1.287434 -1.492979 0.574407
H 1.347102 -0.880646 -1.090904
H -1.255141 -1.634516 0.456515
H -1.225383 -1.052346 -1.191300
H 3.652890 -0.390272 0.107775
H -2.228574 1.918865 0.986195
$end
$scan
stre 2 13 2.100000 2.101000 0.100000
$end
