
$comment
	potential surface scanner
$end

$rem
   JOBTYPE  PES_SCAN
   UNRESTRICTED TRUE
   SYM_IGNORE  TRUE
   GEOM_OPT_MAX_CYCLES 400
   SCF_MAX_CYCLES 400
   METHOD   B3LYP
   BASIS   6-31G**
   PDB_PRINT 2
   SCF_CONVERGENCE 6
   THRESH 14
   SCF_PRINT 1
$end
$molecule
0 3
S 2.642885 0.539543 0.408549
S -2.901402 -0.094333 -0.011100
C -0.074492 0.111814 0.128257
C 1.266898 -0.608164 -0.040716
C -1.245682 -0.815077 -0.215392
H -0.183799 0.466658 1.158447
H -0.107236 0.996648 -0.515962
H 1.309506 -1.488511 0.607726
H 1.398592 -0.934711 -1.076722
H -1.236310 -1.713134 0.419323
H -1.177876 -1.184997 -1.246988
H 3.652185 -0.318226 0.160280
H -2.235066 2.466088 1.403198
$end
$scan
stre 2 13 2.900000 2.901000 0.100000
$end
