
$comment
	potential surface scanner
$end

$rem
   JOBTYPE  PES_SCAN
   UNRESTRICTED TRUE
   SYM_IGNORE  TRUE
   GEOM_OPT_MAX_CYCLES 400
   SCF_MAX_CYCLES 400
   METHOD   B3LYP
   BASIS   6-31G**
   PDB_PRINT 2
   SCF_CONVERGENCE 6
   THRESH 14
   SCF_PRINT 1
$end
$molecule
0 1
S 2.780392 0.459166 -0.008752
S -2.809656 0.415300 -0.060476
C 0.023653 0.268735 -0.000680
C 1.275427 -0.614197 -0.003361
C -1.255885 -0.570755 0.008364
H 0.039207 0.921722 0.880075
H 0.023735 0.921189 -0.880123
H 1.297855 -1.252858 0.884544
H 1.291481 -1.253423 -0.890999
H -1.292979 -1.234819 0.876797
H -1.310112 -1.203639 -0.884258
H 3.686736 -0.538412 -0.002844
H -2.641653 1.105590 1.260612
$end
$scan
stre 2 13 1.600000 1.601000 0.100000
$end
