
$comment
	potential surface scanner
$end

$rem
   JOBTYPE  PES_SCAN
   UNRESTRICTED TRUE
   SYM_IGNORE  TRUE
   GEOM_OPT_MAX_CYCLES 400
   SCF_MAX_CYCLES 400
   METHOD   B3LYP
   BASIS   6-31G**
   PDB_PRINT 2
   SCF_CONVERGENCE 6
   THRESH 14
   SCF_PRINT 1
$end
$molecule
0 3
S 2.631907 0.549767 0.411618
S -2.906723 -0.114324 -0.028614
C -0.081410 0.105171 0.122327
C 1.264555 -0.607495 -0.039660
C -1.246638 -0.828551 -0.222860
H -0.196209 0.462654 1.151210
H -0.116876 0.987896 -0.524748
H 1.310167 -1.485817 0.611322
H 1.402123 -0.936084 -1.074262
H -1.235664 -1.725068 0.413944
H -1.173757 -1.200813 -1.253312
H 3.647413 -0.302300 0.169085
H -2.190684 2.518562 1.442849
$end
$scan
stre 2 13 3.000000 3.001000 0.100000
$end
