
$comment
	potential surface scanner
$end

$rem
   JOBTYPE  PES_SCAN
   UNRESTRICTED TRUE
   SYM_IGNORE  TRUE
   GEOM_OPT_MAX_CYCLES 400
   SCF_MAX_CYCLES 400
   METHOD   B3LYP
   BASIS   6-31G**
   PDB_PRINT 2
   SCF_CONVERGENCE 6
   THRESH 14
   SCF_PRINT 1
$end
$molecule
0 3
S 2.623321 0.615553 0.178662
S -2.899655 0.022996 -0.475303
C -0.088121 0.187617 -0.152100
C 1.220684 -0.580389 0.056001
C -1.272441 -0.771054 -0.318872
H -0.274814 0.855409 0.695669
H -0.006374 0.821408 -1.042283
H 1.173447 -1.171815 0.975251
H 1.402899 -1.258606 -0.783117
H -1.368835 -1.430696 0.557272
H -1.129838 -1.437273 -1.178151
H 3.597868 -0.298952 0.351825
H -1.869939 1.869401 2.314047
$end
$scan
stre 2 13 3.400000 3.401000 0.100000
$end
