
$comment
	potential surface scanner
$end

$rem
   JOBTYPE  PES_SCAN
   UNRESTRICTED TRUE
   SYM_IGNORE  TRUE
   GEOM_OPT_MAX_CYCLES 400
   SCF_MAX_CYCLES 400
   METHOD   B3LYP
   BASIS   6-31G**
   PDB_PRINT 2
   SCF_CONVERGENCE 6
   THRESH 14
   SCF_PRINT 1
$end
$molecule
0 1
S 2.757344 0.486948 0.024532
S -2.821783 0.305272 -0.176582
C 0.008300 0.235264 -0.036746
C 1.278201 -0.620766 -0.013763
C -1.254932 -0.627434 -0.043047
H -0.013436 0.887445 0.844390
H 0.009470 0.887455 -0.916238
H 1.292797 -1.263457 0.871358
H 1.330893 -1.254639 -0.903887
H -1.296547 -1.288973 0.826943
H -1.280433 -1.269012 -0.935987
H 3.686085 -0.489281 0.059674
H -2.587755 1.434780 1.578252
$end
$scan
stre 2 13 2.200000 2.201000 0.100000
$end
