
$comment
	potential surface scanner
$end

$rem
   JOBTYPE  PES_SCAN
   UNRESTRICTED TRUE
   SYM_IGNORE  TRUE
   GEOM_OPT_MAX_CYCLES 400
   SCF_MAX_CYCLES 400
   METHOD   B3LYP
   BASIS   6-31G**
   PDB_PRINT 2
   SCF_CONVERGENCE 6
   THRESH 14
   SCF_PRINT 1
$end
$molecule
0 3
S 0.537480 -1.510828 1.089807
S -2.178858 0.014836 0.858157
C 0.448110 -0.016771 -0.014672
C -0.633729 0.928819 0.512035
C 1.803124 0.662393 -0.203060
H 0.101916 -0.447800 -0.960008
H -0.286393 1.433749 1.420310
H -0.863149 1.702241 -0.232461
H 1.712183 1.498282 -0.906555
H 2.183332 1.061267 0.743494
H 2.542036 -0.039173 -0.598179
H 0.936097 -0.851691 2.198873
H -2.062452 -1.310322 -1.718742
$end
$scan
stre 2 13 2.800000 2.801000 0.100000
$end
