
$comment
	potential surface scanner
$end

$rem
   JOBTYPE  PES_SCAN
   UNRESTRICTED TRUE
   SYM_IGNORE  TRUE
   GEOM_OPT_MAX_CYCLES 400
   SCF_MAX_CYCLES 400
   METHOD   B3LYP
   BASIS   6-31G**
   PDB_PRINT 2
   SCF_CONVERGENCE 6
   THRESH 14
   SCF_PRINT 1
$end
$molecule
0 3
S 0.373711 -1.519592 0.384346
S -2.241943 0.388280 0.342616
C 0.489880 0.238634 -0.210031
C -0.567525 1.093863 0.493190
C 1.901579 0.808872 -0.073055
H 0.220499 0.146654 -1.266914
H -0.307734 1.224805 1.549828
H -0.605869 2.095679 0.042850
H 1.948031 1.816255 -0.503290
H 2.200126 0.879783 0.978354
H 2.630677 0.181098 -0.591101
H 0.729203 -1.264956 1.661983
H -2.530936 -2.964374 -0.619775
$end
$scan
stre 2 13 3.400000 3.401000 0.100000
$end
