
$comment
	potential surface scanner
$end

$rem
   JOBTYPE  PES_SCAN
   UNRESTRICTED TRUE
   SYM_IGNORE  TRUE
   GEOM_OPT_MAX_CYCLES 400
   SCF_MAX_CYCLES 400
   METHOD   B3LYP
   BASIS   6-31G**
   PDB_PRINT 2
   SCF_CONVERGENCE 6
   THRESH 14
   SCF_PRINT 1
$end
$molecule
0 3
S 0.544214 -1.516490 1.085999
S -2.163071 -0.042093 0.846028
C 0.457447 -0.027373 -0.026155
C -0.641632 0.906613 0.483970
C 1.807967 0.664139 -0.199022
H 0.126834 -0.465604 -0.973408
H -0.306344 1.430088 1.386227
H -0.885949 1.663047 -0.272495
H 1.717077 1.497378 -0.905603
H 2.172997 1.068909 0.750975
H 2.558489 -0.030757 -0.584062
H 0.914895 -0.849310 2.199972
H -2.063226 -1.173546 -1.603429
$end
$scan
stre 2 13 2.600000 2.601000 0.100000
$end
