
$comment
	potential surface scanner
$end

$rem
   JOBTYPE  PES_SCAN
   UNRESTRICTED TRUE
   SYM_IGNORE  TRUE
   GEOM_OPT_MAX_CYCLES 400
   SCF_MAX_CYCLES 400
   METHOD   B3LYP
   BASIS   6-31G**
   PDB_PRINT 2
   SCF_CONVERGENCE 6
   THRESH 14
   SCF_PRINT 1
$end
$molecule
0 3
S 0.561638 -1.551004 1.034621
S -2.099505 -0.250954 0.764429
C 0.496985 -0.057300 -0.081008
C -0.669209 0.827093 0.359302
C 1.829768 0.675551 -0.185183
H 0.218938 -0.510418 -1.038338
H -0.413131 1.418645 1.243122
H -0.964572 1.498370 -0.455582
H 1.744348 1.504959 -0.896755
H 2.135398 1.092477 0.780217
H 2.620323 0.006469 -0.535108
H 0.776436 -0.882085 2.187838
H -1.997717 -0.646797 -0.988554
$end
$scan
stre 2 13 1.700000 1.701000 0.100000
$end
