
$comment
	potential surface scanner
$end

$rem
   JOBTYPE  PES_SCAN
   UNRESTRICTED TRUE
   SYM_IGNORE  TRUE
   GEOM_OPT_MAX_CYCLES 400
   SCF_MAX_CYCLES 400
   METHOD   B3LYP
   BASIS   6-31G**
   PDB_PRINT 2
   SCF_CONVERGENCE 6
   THRESH 14
   SCF_PRINT 1
$end
$molecule
0 1
S 0.679437 -1.714248 0.218813
S -2.338101 0.103606 -0.188245
C 0.518987 0.065058 -0.280720
C -0.703698 0.744274 0.352658
C 1.803224 0.849669 0.007021
H 0.361796 0.000563 -1.362114
H -0.637027 0.712501 1.444890
H -0.717634 1.799591 0.059603
H 1.717368 1.872616 -0.377043
H 1.995514 0.911903 1.083851
H 2.666300 0.374233 -0.464478
H 1.034684 -1.472442 1.497906
H -2.141150 -1.122324 0.196859
$end
$scan
stre 2 13 1.400000 1.401000 0.100000
$end
