
$comment
	potential surface scanner
$end

$rem
   JOBTYPE  PES_SCAN
   UNRESTRICTED TRUE
   SYM_IGNORE  TRUE
   GEOM_OPT_MAX_CYCLES 400
   SCF_MAX_CYCLES 400
   METHOD   B3LYP
   BASIS   6-31G**
   PDB_PRINT 2
   SCF_CONVERGENCE 6
   THRESH 14
   SCF_PRINT 1
$end
$molecule
0 3
S 0.562011 -1.529899 1.081415
S -2.133219 -0.154142 0.817442
C 0.475233 -0.050622 -0.045594
C -0.658840 0.859355 0.429465
C 1.814265 0.666543 -0.194175
H 0.170740 -0.504615 -0.993879
H -0.354904 1.422104 1.318660
H -0.930598 1.575387 -0.355228
H 1.720311 1.492557 -0.908723
H 2.151840 1.085260 0.759844
H 2.586101 -0.015225 -0.560319
H 0.872522 -0.848009 2.205020
H -2.035765 -0.873690 -1.364931
$end
$scan
stre 2 13 2.200000 2.201000 0.100000
$end
