
$comment
	potential surface scanner
$end

$rem
   JOBTYPE  PES_SCAN
   UNRESTRICTED TRUE
   SYM_IGNORE  TRUE
   GEOM_OPT_MAX_CYCLES 400
   SCF_MAX_CYCLES 400
   METHOD   B3LYP
   BASIS   6-31G**
   PDB_PRINT 2
   SCF_CONVERGENCE 6
   THRESH 14
   SCF_PRINT 1
$end
$molecule
0 3
S 0.562674 -1.526488 1.089392
S -2.136044 -0.137505 0.831424
C 0.472920 -0.048192 -0.038378
C -0.655850 0.866433 0.441547
C 1.812961 0.665542 -0.194633
H 0.163330 -0.502421 -0.985234
H -0.345382 1.426754 1.330125
H -0.924943 1.585684 -0.341244
H 1.717493 1.491776 -0.908730
H 2.156361 1.083641 0.757600
H 2.581317 -0.018233 -0.564290
H 0.889647 -0.844692 2.208325
H -2.054786 -0.917297 -1.436906
$end
$scan
stre 2 13 2.300000 2.301000 0.100000
$end
