
$comment
	potential surface scanner
$end

$rem
   JOBTYPE  PES_SCAN
   UNRESTRICTED TRUE
   SYM_IGNORE  TRUE
   GEOM_OPT_MAX_CYCLES 400
   SCF_MAX_CYCLES 400
   METHOD   B3LYP
   BASIS   6-31G**
   PDB_PRINT 2
   SCF_CONVERGENCE 6
   THRESH 14
   SCF_PRINT 1
$end
$molecule
0 3
S 0.562687 -1.538436 1.064991
S -2.119466 -0.195364 0.797828
C 0.483040 -0.055560 -0.059223
C -0.664990 0.844200 0.401280
C 1.819164 0.669306 -0.189600
H 0.189475 -0.510005 -1.010730
H -0.377812 1.422951 1.285205
H -0.947697 1.540485 -0.396905
H 1.728586 1.496425 -0.903262
H 2.143019 1.087673 0.769291
H 2.599199 -0.006902 -0.548761
H 0.843397 -0.859846 2.198426
H -2.018905 -0.769921 -1.219540
$end
$scan
stre 2 13 2.000000 2.001000 0.100000
$end
