
$comment
	potential surface scanner
$end

$rem
   JOBTYPE  PES_SCAN
   UNRESTRICTED TRUE
   SYM_IGNORE  TRUE
   GEOM_OPT_MAX_CYCLES 400
   SCF_MAX_CYCLES 400
   METHOD   B3LYP
   BASIS   6-31G**
   PDB_PRINT 2
   SCF_CONVERGENCE 6
   THRESH 14
   SCF_PRINT 1
$end
$molecule
0 3
S 0.309494 -1.488788 0.365122
S -2.245226 0.496758 0.350827
C 0.478355 0.271453 -0.208509
C -0.549607 1.150546 0.509464
C 1.907686 0.796788 -0.075756
H 0.199299 0.200137 -1.264591
H -0.284160 1.259027 1.567200
H -0.559633 2.159338 0.073127
H 1.980391 1.808414 -0.492019
H 2.218359 0.842995 0.973473
H 2.611761 0.154390 -0.610173
H 0.673055 -1.260618 1.645463
H -2.500077 -3.265438 -0.644629
$end
$scan
stre 2 13 3.800000 3.801000 0.100000
$end
