
$comment
	potential surface scanner
$end

$rem
   JOBTYPE  PES_SCAN
   UNRESTRICTED TRUE
   SYM_IGNORE  TRUE
   GEOM_OPT_MAX_CYCLES 400
   SCF_MAX_CYCLES 400
   METHOD   B3LYP
   BASIS   6-31G**
   PDB_PRINT 2
   SCF_CONVERGENCE 6
   THRESH 14
   SCF_PRINT 1
$end
$molecule
0 3
S 0.554648 -1.554230 1.015458
S -2.090169 -0.270543 0.762003
C 0.501496 -0.050768 -0.093418
C -0.667812 0.827506 0.344666
C 1.836969 0.678238 -0.184820
H 0.228423 -0.500693 -1.053786
H -0.421135 1.421401 1.229277
H -0.973637 1.490924 -0.472874
H 1.758206 1.511294 -0.892881
H 2.137239 1.090013 0.784341
H 2.628232 0.008746 -0.532901
H 0.727381 -0.890445 2.178440
H -1.980141 -0.636438 -0.894505
$end
$scan
stre 2 13 1.600000 1.601000 0.100000
$end
