
$comment
	potential surface scanner
$end

$rem
   JOBTYPE  PES_SCAN
   UNRESTRICTED TRUE
   SYM_IGNORE  TRUE
   GEOM_OPT_MAX_CYCLES 400
   SCF_MAX_CYCLES 400
   METHOD   B3LYP
   BASIS   6-31G**
   PDB_PRINT 2
   SCF_CONVERGENCE 6
   THRESH 14
   SCF_PRINT 1
$end
$molecule
0 3
S 0.543703 -1.513627 1.091951
S -2.165899 -0.024569 0.864117
C 0.452701 -0.024227 -0.019418
C -0.640036 0.914630 0.496922
C 1.805430 0.661774 -0.200560
H 0.114614 -0.460940 -0.965133
H -0.297551 1.439682 1.395698
H -0.884330 1.671186 -0.259704
H 1.714673 1.495444 -0.906723
H 2.177013 1.064897 0.747552
H 2.550491 -0.036784 -0.589415
H 0.928442 -0.847375 2.201659
H -2.059554 -1.215089 -1.667948
$end
$scan
stre 2 13 2.700000 2.701000 0.100000
$end
