
$comment
	potential surface scanner
$end

$rem
   JOBTYPE  PES_SCAN
   UNRESTRICTED TRUE
   SYM_IGNORE  TRUE
   GEOM_OPT_MAX_CYCLES 400
   SCF_MAX_CYCLES 400
   METHOD   B3LYP
   BASIS   6-31G**
   PDB_PRINT 2
   SCF_CONVERGENCE 6
   THRESH 14
   SCF_PRINT 1
$end
$molecule
0 3
S 0.523926 -1.504139 1.091794
S -2.198731 0.100711 0.887058
C 0.430812 -0.001356 0.001003
C -0.622909 0.961727 0.553636
C 1.792837 0.658045 -0.211251
H 0.059854 -0.419158 -0.941096
H -0.254945 1.443430 1.466479
H -0.833466 1.755715 -0.175579
H 1.702258 1.498415 -0.909491
H 2.196834 1.046552 0.729775
H 2.512737 -0.053870 -0.622395
H 0.956398 -0.858004 2.195707
H -2.025907 -1.503066 -1.876641
$end
$scan
stre 2 13 3.100000 3.101000 0.100000
$end
