
$comment
	potential surface scanner
$end

$rem
   JOBTYPE  PES_SCAN
   UNRESTRICTED TRUE
   SYM_IGNORE  TRUE
   GEOM_OPT_MAX_CYCLES 400
   SCF_MAX_CYCLES 400
   METHOD   B3LYP
   BASIS   6-31G**
   PDB_PRINT 2
   SCF_CONVERGENCE 6
   THRESH 14
   SCF_PRINT 1
$end
$molecule
0 3
S 0.561727 -1.534033 1.073578
S -2.126798 -0.174874 0.807554
C 0.478601 -0.053144 -0.052269
C -0.662372 0.851830 0.415650
C 1.816328 0.667571 -0.192011
H 0.178865 -0.507390 -1.001922
H -0.366610 1.422849 1.302085
H -0.939792 1.558109 -0.375722
H 1.724214 1.494015 -0.906279
H 2.147172 1.086241 0.764371
H 2.592095 -0.011669 -0.554592
H 0.859847 -0.853739 2.201520
H -2.023580 -0.820760 -1.292965
$end
$scan
stre 2 13 2.100000 2.101000 0.100000
$end
