
$comment
	potential surface scanner
$end

$rem
   JOBTYPE  PES_SCAN
   UNRESTRICTED TRUE
   SYM_IGNORE  TRUE
   GEOM_OPT_MAX_CYCLES 400
   SCF_MAX_CYCLES 400
   METHOD   B3LYP
   BASIS   6-31G**
   PDB_PRINT 2
   SCF_CONVERGENCE 6
   THRESH 14
   SCF_PRINT 1
$end
$molecule
0 1
S 0.621451 -1.697146 0.214057
S -2.353452 0.170481 -0.145983
C 0.497965 0.086861 -0.280110
C -0.705672 0.795228 0.361343
C 1.802454 0.838059 0.003786
H 0.333650 0.026469 -1.360774
H -0.618402 0.778354 1.452707
H -0.699869 1.846107 0.049746
H 1.740118 1.861998 -0.382099
H 1.997863 0.897819 1.080105
H 2.653043 0.341455 -0.468558
H 0.936808 -1.468865 1.506316
H -1.966259 -1.351818 0.158465
$end
$scan
stre 2 13 1.700000 1.701000 0.100000
$end
