
$comment
	potential surface scanner
$end

$rem
   JOBTYPE  PES_SCAN
   UNRESTRICTED TRUE
   SYM_IGNORE  TRUE
   GEOM_OPT_MAX_CYCLES 400
   SCF_MAX_CYCLES 400
   METHOD   B3LYP
   BASIS   6-31G**
   PDB_PRINT 2
   SCF_CONVERGENCE 6
   THRESH 14
   SCF_PRINT 1
$end
$molecule
0 3
S 0.342225 -1.505192 0.376427
S -2.244767 0.444460 0.354195
C 0.482741 0.253860 -0.209081
C -0.558156 1.122093 0.502184
C 1.903464 0.801905 -0.075377
H 0.207642 0.171553 -1.265357
H -0.292311 1.245519 1.558208
H -0.583381 2.125831 0.055229
H 1.963486 1.811275 -0.499384
H 2.208385 0.861218 0.974845
H 2.619746 0.166136 -0.601368
H 0.695827 -1.263307 1.657008
H -2.505205 -3.110349 -0.638530
$end
$scan
stre 2 13 3.600000 3.601000 0.100000
$end
