
$comment
	potential surface scanner
$end

$rem
   JOBTYPE  PES_SCAN
   UNRESTRICTED TRUE
   SYM_IGNORE  TRUE
   GEOM_OPT_MAX_CYCLES 400
   SCF_MAX_CYCLES 400
   METHOD   B3LYP
   BASIS   6-31G**
   PDB_PRINT 2
   SCF_CONVERGENCE 6
   THRESH 14
   SCF_PRINT 1
$end
$molecule
0 3
S 0.562363 -1.542458 1.055886
S -2.114235 -0.212323 0.784985
C 0.487399 -0.057300 -0.066147
C -0.666763 0.837818 0.387689
C 1.821895 0.671315 -0.188404
H 0.199638 -0.511325 -1.019830
H -0.388984 1.419282 1.272453
H -0.951567 1.528147 -0.414796
H 1.732192 1.498795 -0.901729
H 2.139874 1.089871 0.772386
H 2.605832 -0.002070 -0.544490
H 0.822880 -0.866053 2.195436
H -2.010825 -0.728692 -1.144437
$end
$scan
stre 2 13 1.900000 1.901000 0.100000
$end
