
$comment
	potential surface scanner
$end

$rem
   JOBTYPE  PES_SCAN
   UNRESTRICTED TRUE
   SYM_IGNORE  TRUE
   GEOM_OPT_MAX_CYCLES 400
   SCF_MAX_CYCLES 400
   METHOD   B3LYP
   BASIS   6-31G**
   PDB_PRINT 2
   SCF_CONVERGENCE 6
   THRESH 14
   SCF_PRINT 1
$end
$molecule
0 3
S 0.534157 -1.508053 1.096912
S -2.179228 0.030821 0.881911
C 0.442691 -0.014400 -0.007978
C -0.632499 0.936491 0.523379
C 1.799133 0.659431 -0.204590
H 0.089594 -0.444733 -0.951090
H -0.276037 1.444452 1.426383
H -0.864550 1.707390 -0.223084
H 1.707625 1.495052 -0.908289
H 2.185812 1.057707 0.739599
H 2.533149 -0.045505 -0.602812
H 0.950194 -0.850624 2.200567
H -2.050345 -1.343026 -1.781909
$end
$scan
stre 2 13 2.900000 2.901000 0.100000
$end
