
$comment
	potential surface scanner
$end

$rem
   JOBTYPE  PES_SCAN
   UNRESTRICTED TRUE
   SYM_IGNORE  TRUE
   GEOM_OPT_MAX_CYCLES 400
   SCF_MAX_CYCLES 400
   METHOD   B3LYP
   BASIS   6-31G**
   PDB_PRINT 2
   SCF_CONVERGENCE 6
   THRESH 14
   SCF_PRINT 1
$end
$molecule
0 3
S 0.296950 -1.484082 0.358517
S -2.250351 0.534386 0.353212
C 0.473658 0.276225 -0.209042
C -0.546028 1.161664 0.512067
C 1.906229 0.793729 -0.075232
H 0.194696 0.211012 -1.265533
H -0.278584 1.266714 1.569691
H -0.544918 2.171672 0.077907
H 1.984778 1.806796 -0.487058
H 2.217372 0.833528 0.974072
H 2.606645 0.149755 -0.612464
H 0.666148 -1.264804 1.638779
H -2.486898 -3.331592 -0.645917
$end
$scan
stre 2 13 3.900000 3.901000 0.100000
$end
