
$comment
	potential surface scanner
$end

$rem
   JOBTYPE  PES_SCAN
   UNRESTRICTED TRUE
   SYM_IGNORE  TRUE
   GEOM_OPT_MAX_CYCLES 400
   SCF_MAX_CYCLES 400
   METHOD   B3LYP
   BASIS   6-31G**
   PDB_PRINT 2
   SCF_CONVERGENCE 6
   THRESH 14
   SCF_PRINT 1
$end
$molecule
0 3
Br 3.703374 0.000239 0.108210
C -0.584189 -0.000035 0.435025
C -1.024152 -1.299647 -0.150992
C -1.023038 1.299913 -0.151075
H -0.138638 -0.000186 1.426600
H -0.450516 -2.143224 0.246357
H -2.088775 -1.511821 0.055027
H -0.921318 -1.304923 -1.244780
H -0.448365 2.142969 0.245887
H -2.087353 1.513252 0.055342
H -0.920633 1.304863 -1.244900
$end
$scan
stre 1 2 4.200000 4.201000 0.100000
$end
