
$comment
	potential surface scanner
$end

$rem
   JOBTYPE  PES_SCAN
   UNRESTRICTED TRUE
   SYM_IGNORE  TRUE
   GEOM_OPT_MAX_CYCLES 400
   SCF_MAX_CYCLES 400
   METHOD   B3LYP
   BASIS   6-31G**
   PDB_PRINT 2
   SCF_CONVERGENCE 6
   THRESH 14
   SCF_PRINT 1
$end
$molecule
0 1
Br 2.169572 -0.000554 -0.118079
C -0.372507 0.000086 0.427657
C -0.840456 -1.290601 -0.149746
C -0.839799 1.291001 -0.149770
H -0.163147 0.000045 1.493725
H -0.288862 -2.141397 0.251311
H -1.901546 -1.410942 0.127384
H -0.779462 -1.295462 -1.240199
H -0.287730 2.141512 0.251234
H -1.900810 1.411918 0.127407
H -0.778854 1.295792 -1.240225
$end
$scan
stre 1 2 2.700000 2.701000 0.100000
$end
