
$comment
	potential surface scanner
$end

$rem
   JOBTYPE  PES_SCAN
   UNRESTRICTED TRUE
   SYM_IGNORE  TRUE
   GEOM_OPT_MAX_CYCLES 400
   SCF_MAX_CYCLES 400
   METHOD   B3LYP
   BASIS   6-31G**
   PDB_PRINT 2
   SCF_CONVERGENCE 6
   THRESH 14
   SCF_PRINT 1
$end
$molecule
0 1
Br 2.241197 -0.000546 -0.116984
C -0.402302 0.000089 0.432484
C -0.848050 -1.291886 -0.149894
C -0.847385 1.292283 -0.149918
H -0.164501 0.000039 1.492347
H -0.285460 -2.135954 0.249850
H -1.908170 -1.428349 0.126937
H -0.788909 -1.291646 -1.240410
H -0.284324 2.136058 0.249780
H -1.907421 1.429331 0.126944
H -0.788276 1.291977 -1.240437
$end
$scan
stre 1 2 2.800000 2.801000 0.100000
$end
