
$comment
	potential surface scanner
$end

$rem
   JOBTYPE  PES_SCAN
   UNRESTRICTED TRUE
   SYM_IGNORE  TRUE
   GEOM_OPT_MAX_CYCLES 400
   SCF_MAX_CYCLES 400
   METHOD   B3LYP
   BASIS   6-31G**
   PDB_PRINT 2
   SCF_CONVERGENCE 6
   THRESH 14
   SCF_PRINT 1
$end
$molecule
0 3
Br 4.393849 -0.000787 0.336231
C -0.606030 0.000127 0.371074
C -1.103704 -1.299071 -0.168172
C -1.103037 1.299529 -0.168296
H -0.070416 0.000043 1.317218
H -0.489415 -2.142911 0.162217
H -2.139474 -1.513993 0.150924
H -1.119522 -1.299688 -1.266586
H -0.488234 2.143064 0.161917
H -2.138653 1.515077 0.150881
H -1.118967 1.300007 -1.266707
$end
$scan
stre 1 2 4.900000 4.901000 0.100000
$end
