
$comment
	potential surface scanner
$end

$rem
   JOBTYPE  PES_SCAN
   UNRESTRICTED TRUE
   SYM_IGNORE  TRUE
   GEOM_OPT_MAX_CYCLES 400
   SCF_MAX_CYCLES 400
   METHOD   B3LYP
   BASIS   6-31G**
   PDB_PRINT 2
   SCF_CONVERGENCE 6
   THRESH 14
   SCF_PRINT 1
$end
$molecule
0 1
Br 1.971955 -0.000523 -0.102397
C -0.271237 0.000065 0.405627
C -0.820097 -1.284396 -0.150252
C -0.819445 1.284791 -0.150276
H -0.154212 0.000049 1.487196
H -0.304875 -2.157197 0.253852
H -1.881342 -1.351169 0.132691
H -0.760283 -1.308361 -1.241105
H -0.303741 2.157332 0.253772
H -1.880639 1.352125 0.132725
H -0.759684 1.308685 -1.241134
$end
$scan
stre 1 2 2.400000 2.401000 0.100000
$end
