
$comment
	potential surface scanner
$end

$rem
   JOBTYPE  PES_SCAN
   UNRESTRICTED TRUE
   SYM_IGNORE  TRUE
   GEOM_OPT_MAX_CYCLES 400
   SCF_MAX_CYCLES 400
   METHOD   B3LYP
   BASIS   6-31G**
   PDB_PRINT 2
   SCF_CONVERGENCE 6
   THRESH 14
   SCF_PRINT 1
$end
$molecule
0 3
Br 2.391702 0.002360 -0.254862
C -0.505133 -0.000172 0.525100
C -0.865922 -1.296252 -0.124016
C -0.864540 1.296021 -0.124428
H -0.308708 -0.000027 1.594751
H -0.386150 -2.149873 0.367229
H -1.953831 -1.486743 -0.100125
H -0.577718 -1.308952 -1.183980
H -0.385869 2.149606 0.367948
H -1.952522 1.486537 -0.102779
H -0.574913 1.308894 -1.184134
$end
$scan
stre 1 2 2.900000 2.901000 0.100000
$end
