
$comment
	potential surface scanner
$end

$rem
   JOBTYPE  PES_SCAN
   UNRESTRICTED TRUE
   SYM_IGNORE  TRUE
   GEOM_OPT_MAX_CYCLES 400
   SCF_MAX_CYCLES 400
   METHOD   B3LYP
   BASIS   6-31G**
   PDB_PRINT 2
   SCF_CONVERGENCE 6
   THRESH 14
   SCF_PRINT 1
$end
$molecule
0 3
Br 4.096130 -0.000565 0.238350
C -0.601024 0.000098 0.401868
C -1.066107 -1.300113 -0.163317
C -1.065345 1.300526 -0.163437
H -0.136520 0.000012 1.385031
H -0.453256 -2.139178 0.182445
H -2.109126 -1.530184 0.120145
H -1.044448 -1.293142 -1.261262
H -0.451917 2.139241 0.182155
H -2.108188 1.531302 0.120105
H -1.043801 1.293401 -1.261382
$end
$scan
stre 1 2 4.600000 4.601000 0.100000
$end
