
$comment
	potential surface scanner
$end

$rem
   JOBTYPE  PES_SCAN
   UNRESTRICTED TRUE
   SYM_IGNORE  TRUE
   GEOM_OPT_MAX_CYCLES 400
   SCF_MAX_CYCLES 400
   METHOD   B3LYP
   BASIS   6-31G**
   PDB_PRINT 2
   SCF_CONVERGENCE 6
   THRESH 14
   SCF_PRINT 1
$end
$molecule
0 3
Br 2.264324 -0.004312 -0.139342
C -0.462008 0.000826 0.498694
C -0.851725 -1.295288 -0.136429
C -0.853794 1.296399 -0.136229
H -0.275666 0.000674 1.570112
H -0.352926 -2.150178 0.334490
H -1.937518 -1.485598 -0.065571
H -0.608419 -1.309049 -1.207493
H -0.353579 2.151725 0.332454
H -1.939352 1.486811 -0.062246
H -0.612939 1.309389 -1.207737
$end
$scan
stre 1 2 2.700000 2.701000 0.100000
$end
