
$comment
	potential surface scanner
$end

$rem
   JOBTYPE  PES_SCAN
   UNRESTRICTED TRUE
   SYM_IGNORE  TRUE
   GEOM_OPT_MAX_CYCLES 400
   SCF_MAX_CYCLES 400
   METHOD   B3LYP
   BASIS   6-31G**
   PDB_PRINT 2
   SCF_CONVERGENCE 6
   THRESH 14
   SCF_PRINT 1
$end
$molecule
0 3
Br 2.090552 0.001539 0.989761
C -0.260928 0.000180 0.140913
C -0.882381 -1.306600 -0.217684
C -0.870390 1.305138 -0.244014
H 0.220891 0.007976 1.161143
H -0.225964 -2.147565 0.025448
H -1.845118 -1.474849 0.294326
H -1.092191 -1.336317 -1.295099
H -0.202299 2.143927 -0.026383
H -1.826460 1.496541 0.272229
H -1.089315 1.311432 -1.319937
$end
$scan
stre 1 2 2.400000 2.401000 0.100000
$end
