
$comment
	potential surface scanner
$end

$rem
   JOBTYPE  PES_SCAN
   UNRESTRICTED TRUE
   SYM_IGNORE  TRUE
   GEOM_OPT_MAX_CYCLES 400
   SCF_MAX_CYCLES 400
   METHOD   B3LYP
   BASIS   6-31G**
   PDB_PRINT 2
   SCF_CONVERGENCE 6
   THRESH 14
   SCF_PRINT 1
$end
$molecule
0 3
Br 4.803822 -0.001161 0.640061
C -0.583221 0.000177 0.266210
C -1.162006 -1.298554 -0.186349
C -1.161509 1.299089 -0.186465
H 0.100161 0.000089 1.111561
H -0.505527 -2.143627 0.044207
H -2.135097 -1.509573 0.292437
H -1.350750 -1.299874 -1.268588
H -0.504628 2.143909 0.043872
H -2.134439 1.510597 0.292433
H -1.350405 1.300327 -1.268677
$end
$scan
stre 1 2 5.300000 5.301000 0.100000
$end
