
$comment
	potential surface scanner
$end

$rem
   JOBTYPE  PES_SCAN
   UNRESTRICTED TRUE
   SYM_IGNORE  TRUE
   GEOM_OPT_MAX_CYCLES 400
   SCF_MAX_CYCLES 400
   METHOD   B3LYP
   BASIS   6-31G**
   PDB_PRINT 2
   SCF_CONVERGENCE 6
   THRESH 14
   SCF_PRINT 1
$end
$molecule
0 3
Br 2.664848 0.007137 -0.229958
C -0.548147 -0.000733 0.522771
C -0.895591 -1.299055 -0.126389
C -0.892515 1.297994 -0.127254
H -0.330386 -0.000641 1.588213
H -0.385285 -2.144154 0.348219
H -1.978294 -1.514343 -0.077048
H -0.633390 -1.299236 -1.192735
H -0.383649 2.142510 0.349790
H -1.975330 1.513478 -0.082390
H -0.625864 1.298443 -1.192516
$end
$scan
stre 1 2 3.200000 3.201000 0.100000
$end
