
$comment
	potential surface scanner
$end

$rem
   JOBTYPE  PES_SCAN
   UNRESTRICTED TRUE
   SYM_IGNORE  TRUE
   GEOM_OPT_MAX_CYCLES 400
   SCF_MAX_CYCLES 400
   METHOD   B3LYP
   BASIS   6-31G**
   PDB_PRINT 2
   SCF_CONVERGENCE 6
   THRESH 14
   SCF_PRINT 1
$end
$molecule
0 3
Br 3.157621 0.000706 -0.135367
C -0.588656 -0.000095 0.501352
C -0.950798 -1.300359 -0.134887
C -0.949421 1.300527 -0.134935
H -0.307088 -0.000221 1.551661
H -0.407544 -2.139285 0.312742
H -2.027181 -1.529286 -0.033759
H -0.740539 -1.295353 -1.212465
H -0.405050 2.138851 0.312467
H -2.025500 1.530761 -0.033543
H -0.739446 1.295152 -1.212565
$end
$scan
stre 1 2 3.700000 3.701000 0.100000
$end
