
$comment
	potential surface scanner
$end

$rem
   JOBTYPE  PES_SCAN
   UNRESTRICTED TRUE
   SYM_IGNORE  TRUE
   GEOM_OPT_MAX_CYCLES 400
   SCF_MAX_CYCLES 400
   METHOD   B3LYP
   BASIS   6-31G**
   PDB_PRINT 2
   SCF_CONVERGENCE 6
   THRESH 14
   SCF_PRINT 1
$end
$molecule
0 3
Br 3.375735 0.000563 -0.062907
C -0.587049 -0.000080 0.481469
C -0.976146 -1.299387 -0.140822
C -0.974861 1.299583 -0.140877
H -0.277308 -0.000203 1.523927
H -0.421213 -2.140682 0.287528
H -2.049465 -1.523231 -0.002369
H -0.803767 -1.295636 -1.225114
H -0.418801 2.140293 0.287162
H -2.047868 1.524707 -0.002072
H -0.802859 1.295471 -1.225224
$end
$scan
stre 1 2 3.900000 3.901000 0.100000
$end
