
$comment
	potential surface scanner
$end

$rem
   JOBTYPE  PES_SCAN
   UNRESTRICTED TRUE
   SYM_IGNORE  TRUE
   GEOM_OPT_MAX_CYCLES 400
   SCF_MAX_CYCLES 400
   METHOD   B3LYP
   BASIS   6-31G**
   PDB_PRINT 2
   SCF_CONVERGENCE 6
   THRESH 14
   SCF_PRINT 1
$end
$molecule
0 1
Br 1.744600 -0.000400 -0.101000
C -0.148200 0.000100 0.395200
C -0.798600 -1.260800 -0.147100
C -0.797900 1.261200 -0.147100
H -0.168300 0.000100 1.489400
H -0.311900 -2.158700 0.249400
H -1.855400 -1.302200 0.136700
H -0.741600 -1.308000 -1.240400
H -0.310700 2.158800 0.249400
H -1.854800 1.303000 0.136600
H -0.740800 1.308300 -1.240400
$end
$scan
stre 1 2 1.100000 1.101000 0.100000
$end
