
$comment
	potential surface scanner
$end

$rem
   JOBTYPE  PES_SCAN
   UNRESTRICTED TRUE
   SYM_IGNORE  TRUE
   GEOM_OPT_MAX_CYCLES 400
   SCF_MAX_CYCLES 400
   METHOD   B3LYP
   BASIS   6-31G**
   PDB_PRINT 2
   SCF_CONVERGENCE 6
   THRESH 14
   SCF_PRINT 1
$end
$molecule
0 3
Br 4.295716 -0.000723 0.304676
C -0.603697 0.000119 0.380480
C -1.091345 -1.299527 -0.166709
C -1.090651 1.299972 -0.166832
H -0.091417 0.000033 1.339375
H -0.477571 -2.141745 0.169018
H -2.129614 -1.518990 0.141186
H -1.095249 -1.298346 -1.265118
H -0.476348 2.141874 0.168722
H -2.128761 1.520083 0.141141
H -1.094665 1.298648 -1.265239
$end
$scan
stre 1 2 4.800000 4.801000 0.100000
$end
