
$comment
	potential surface scanner
$end

$rem
   JOBTYPE  PES_SCAN
   UNRESTRICTED TRUE
   SYM_IGNORE  TRUE
   GEOM_OPT_MAX_CYCLES 400
   SCF_MAX_CYCLES 400
   METHOD   B3LYP
   BASIS   6-31G**
   PDB_PRINT 2
   SCF_CONVERGENCE 6
   THRESH 14
   SCF_PRINT 1
$end
$molecule
0 3
Br 3.786395 -0.000068 0.134707
C -0.603203 0.000022 0.437077
C -1.027587 -1.301173 -0.157035
C -1.026581 1.301492 -0.157143
H -0.203936 -0.000087 1.448904
H -0.415639 -2.134447 0.204666
H -2.076483 -1.550899 0.085552
H -0.964150 -1.283487 -1.252923
H -0.413881 2.134295 0.204372
H -2.075233 1.552138 0.085559
H -0.963304 1.283614 -1.253035
$end
$scan
stre 1 2 4.300000 4.301000 0.100000
$end
