
$comment
	potential surface scanner
$end

$rem
   JOBTYPE  PES_SCAN
   UNRESTRICTED TRUE
   SYM_IGNORE  TRUE
   GEOM_OPT_MAX_CYCLES 400
   SCF_MAX_CYCLES 400
   METHOD   B3LYP
   BASIS   6-31G**
   PDB_PRINT 2
   SCF_CONVERGENCE 6
   THRESH 14
   SCF_PRINT 1
$end
$molecule
0 3
Br 5.083471 -0.001555 0.863462
C -0.575959 0.000245 0.184603
C -1.201735 -1.299087 -0.197248
C -1.201444 1.299686 -0.197365
H 0.208933 0.000213 0.936532
H -0.520661 -2.142646 -0.046254
H -2.111800 -1.513750 0.391630
H -1.516540 -1.300667 -1.249799
H -0.520113 2.143079 -0.046595
H -2.111366 1.514688 0.391608
H -1.516386 1.301192 -1.249874
$end
$scan
stre 1 2 5.600000 5.601000 0.100000
$end
