
$comment
	potential surface scanner
$end

$rem
   JOBTYPE  PES_SCAN
   UNRESTRICTED TRUE
   SYM_IGNORE  TRUE
   GEOM_OPT_MAX_CYCLES 400
   SCF_MAX_CYCLES 400
   METHOD   B3LYP
   BASIS   6-31G**
   PDB_PRINT 2
   SCF_CONVERGENCE 6
   THRESH 14
   SCF_PRINT 1
$end
$molecule
0 3
Br 2.319862 -0.002763 -0.220854
C -0.484943 0.000527 0.516072
C -0.857896 -1.295471 -0.127614
C -0.858836 1.296186 -0.127615
H -0.290491 0.000152 1.586021
H -0.377925 -2.150266 0.361565
H -1.946352 -1.480680 -0.093891
H -0.579417 -1.312284 -1.190250
H -0.379027 2.151958 0.360353
H -1.947348 1.481354 -0.092617
H -0.581229 1.312686 -1.190466
$end
$scan
stre 1 2 2.800000 2.801000 0.100000
$end
