
$comment
	potential surface scanner
$end

$rem
   JOBTYPE  PES_SCAN
   UNRESTRICTED TRUE
   SYM_IGNORE  TRUE
   GEOM_OPT_MAX_CYCLES 400
   SCF_MAX_CYCLES 400
   METHOD   B3LYP
   BASIS   6-31G**
   PDB_PRINT 2
   SCF_CONVERGENCE 6
   THRESH 14
   SCF_PRINT 1
$end
$molecule
0 1
Br 2.101499 -0.000544 -0.114460
C -0.340523 0.000080 0.420820
C -0.833191 -1.289072 -0.149991
C -0.832537 1.289470 -0.150014
H -0.160811 0.000047 1.492632
H -0.293278 -2.146868 0.252491
H -1.894726 -1.392011 0.128927
H -0.772244 -1.300350 -1.240524
H -0.292142 2.146988 0.252409
H -1.894000 1.392982 0.128961
H -0.771648 1.300677 -1.240551
$end
$scan
stre 1 2 2.600000 2.601000 0.100000
$end
