
$comment
	potential surface scanner
$end

$rem
   JOBTYPE  PES_SCAN
   UNRESTRICTED TRUE
   SYM_IGNORE  TRUE
   GEOM_OPT_MAX_CYCLES 400
   SCF_MAX_CYCLES 400
   METHOD   B3LYP
   BASIS   6-31G**
   PDB_PRINT 2
   SCF_CONVERGENCE 6
   THRESH 14
   SCF_PRINT 1
$end
$molecule
0 3
Br 3.053896 -0.051154 -0.165700
C -0.583700 0.007767 0.508414
C -0.925940 -1.295356 -0.133273
C -0.948906 1.305325 -0.131722
H -0.326053 0.009289 1.565058
H -0.381920 -2.130209 0.321151
H -2.001659 -1.533417 -0.047413
H -0.700806 -1.287535 -1.207837
H -0.414898 2.147277 0.321387
H -2.027677 1.527445 -0.042591
H -0.725939 1.301968 -1.206773
$end
$scan
stre 1 2 3.600000 3.601000 0.100000
$end
