
$comment
	potential surface scanner
$end

$rem
   JOBTYPE  PES_SCAN
   UNRESTRICTED TRUE
   SYM_IGNORE  TRUE
   GEOM_OPT_MAX_CYCLES 400
   SCF_MAX_CYCLES 400
   METHOD   B3LYP
   BASIS   6-31G**
   PDB_PRINT 2
   SCF_CONVERGENCE 6
   THRESH 14
   SCF_PRINT 1
$end
$molecule
0 3
Br 2.178057 0.005421 1.202475
C -0.290667 -0.000298 0.109145
C -0.901118 -1.313959 -0.234068
C -0.888956 1.311977 -0.259718
H 0.301867 0.005987 1.068804
H -0.219450 -2.144210 -0.027195
H -1.834396 -1.503751 0.322920
H -1.160300 -1.341573 -1.300809
H -0.193928 2.138299 -0.083276
H -1.811582 1.528004 0.305402
H -1.163129 1.315503 -1.322978
$end
$scan
stre 1 2 2.600000 2.601000 0.100000
$end
