
$comment
	potential surface scanner
$end

$rem
   JOBTYPE  PES_SCAN
   UNRESTRICTED TRUE
   SYM_IGNORE  TRUE
   GEOM_OPT_MAX_CYCLES 400
   SCF_MAX_CYCLES 400
   METHOD   B3LYP
   BASIS   6-31G**
   PDB_PRINT 2
   SCF_CONVERGENCE 6
   THRESH 14
   SCF_PRINT 1
$end
$molecule
0 3
Br 3.886661 -0.000125 0.168544
C -0.605888 0.000029 0.427388
C -1.040342 -1.301242 -0.159061
C -1.039362 1.301574 -0.159174
H -0.182769 -0.000083 1.429178
H -0.425270 -2.135018 0.195990
H -2.086633 -1.548378 0.096936
H -0.990926 -1.285410 -1.255803
H -0.423558 2.134889 0.195692
H -2.085417 1.549605 0.096931
H -0.990097 1.285559 -1.255919
$end
$scan
stre 1 2 4.400000 4.401000 0.100000
$end
