
$comment
	potential surface scanner
$end

$rem
   JOBTYPE  PES_SCAN
   UNRESTRICTED TRUE
   SYM_IGNORE  TRUE
   GEOM_OPT_MAX_CYCLES 400
   SCF_MAX_CYCLES 400
   METHOD   B3LYP
   BASIS   6-31G**
   PDB_PRINT 2
   SCF_CONVERGENCE 6
   THRESH 14
   SCF_PRINT 1
$end
$molecule
0 1
Br 2.036720 -0.000523 -0.106667
C -0.306423 0.000072 0.412641
C -0.826587 -1.287061 -0.150428
C -0.825931 1.287455 -0.150452
H -0.156618 0.000046 1.489487
H -0.298684 -2.152225 0.252871
H -1.887949 -1.371775 0.131372
H -0.766977 -1.305008 -1.241145
H -0.297541 2.152348 0.252789
H -1.887232 1.372740 0.131406
H -0.766377 1.305332 -1.241173
$end
$scan
stre 1 2 2.500000 2.501000 0.100000
$end
