
$comment
	potential surface scanner
$end

$rem
   JOBTYPE  PES_SCAN
   UNRESTRICTED TRUE
   SYM_IGNORE  TRUE
   GEOM_OPT_MAX_CYCLES 400
   SCF_MAX_CYCLES 400
   METHOD   B3LYP
   BASIS   6-31G**
   PDB_PRINT 2
   SCF_CONVERGENCE 6
   THRESH 14
   SCF_PRINT 1
$end
$molecule
0 1
Br 1.909091 -0.000505 -0.094969
C -0.234886 0.000055 0.398348
C -0.814103 -1.281107 -0.150038
C -0.813452 1.281499 -0.150062
H -0.151444 0.000046 1.483854
H -0.310744 -2.161583 0.253333
H -1.874632 -1.330574 0.134677
H -0.755243 -1.310067 -1.241188
H -0.309611 2.161724 0.253255
H -1.873940 1.331528 0.134706
H -0.754635 1.310387 -1.241216
$end
$scan
stre 1 2 2.300000 2.301000 0.100000
$end
