
$comment
	potential surface scanner
$end

$rem
   JOBTYPE  PES_SCAN
   UNRESTRICTED TRUE
   SYM_IGNORE  TRUE
   GEOM_OPT_MAX_CYCLES 400
   SCF_MAX_CYCLES 400
   METHOD   B3LYP
   BASIS   6-31G**
   PDB_PRINT 2
   SCF_CONVERGENCE 6
   THRESH 14
   SCF_PRINT 1
$end
$molecule
0 3
Br 1.984431 -0.000130 0.822740
C -0.220316 0.000314 0.167689
C -0.860391 -1.297927 -0.205957
C -0.848247 1.296584 -0.232573
H 0.126366 0.009390 1.245709
H -0.220880 -2.150535 0.044449
H -1.836046 -1.456186 0.284479
H -1.048790 -1.317129 -1.287320
H -0.198236 2.147560 -0.004619
H -1.819425 1.476261 0.259205
H -1.042070 1.293199 -1.313099
$end
$scan
stre 1 2 2.200000 2.201000 0.100000
$end
