
$comment
	potential surface scanner
$end

$rem
   JOBTYPE  PES_SCAN
   UNRESTRICTED TRUE
   SYM_IGNORE  TRUE
   GEOM_OPT_MAX_CYCLES 400
   SCF_MAX_CYCLES 400
   METHOD   B3LYP
   BASIS   6-31G**
   PDB_PRINT 2
   SCF_CONVERGENCE 6
   THRESH 14
   SCF_PRINT 1
$end
$molecule
0 1
Br 1.724272 -0.000433 -0.054636
C -0.127164 0.000021 0.372195
C -0.795241 -1.270568 -0.151820
C -0.794592 1.270943 -0.151844
H -0.161088 0.000040 1.464673
H -0.314459 -2.168485 0.244179
H -1.848733 -1.281107 0.151489
H -0.752925 -1.312463 -1.244556
H -0.313321 2.168618 0.244110
H -1.848071 1.282057 0.151491
H -0.752277 1.312778 -1.244582
$end
$scan
stre 1 2 2.000000 2.001000 0.100000
$end
