
$comment
	potential surface scanner
$end

$rem
   JOBTYPE  PES_SCAN
   UNRESTRICTED TRUE
   SYM_IGNORE  TRUE
   GEOM_OPT_MAX_CYCLES 400
   SCF_MAX_CYCLES 400
   METHOD   B3LYP
   BASIS   6-31G**
   PDB_PRINT 2
   SCF_CONVERGENCE 6
   THRESH 14
   SCF_PRINT 1
$end
$molecule
0 3
Br 2.847949 -0.030049 -0.209951
C -0.574599 0.004591 0.521466
C -0.905315 -1.296740 -0.129990
C -0.920654 1.302691 -0.128241
H -0.350672 0.004486 1.585795
H -0.375208 -2.133908 0.336738
H -1.983426 -1.531981 -0.071227
H -0.652840 -1.288106 -1.198418
H -0.387504 2.143634 0.328538
H -1.998589 1.534278 -0.054094
H -0.682743 1.292504 -1.199913
$end
$scan
stre 1 2 3.400000 3.401000 0.100000
$end
