
$comment
	potential surface scanner
$end

$rem
   JOBTYPE  PES_SCAN
   UNRESTRICTED TRUE
   SYM_IGNORE  TRUE
   GEOM_OPT_MAX_CYCLES 400
   SCF_MAX_CYCLES 400
   METHOD   B3LYP
   BASIS   6-31G**
   PDB_PRINT 2
   SCF_CONVERGENCE 6
   THRESH 14
   SCF_PRINT 1
$end
$molecule
0 1
Br 1.785840 -0.000444 -0.062845
C -0.164218 0.000029 0.381310
C -0.801187 -1.274462 -0.152029
C -0.800534 1.274839 -0.152052
H -0.159614 0.000040 1.472531
H -0.310439 -2.166800 0.242948
H -1.856186 -1.300096 0.148432
H -0.756547 -1.309437 -1.244443
H -0.309296 2.166931 0.242874
H -1.855510 1.301052 0.148444
H -0.755910 1.309750 -1.244469
$end
$scan
stre 1 2 2.100000 2.101000 0.100000
$end
