
$comment
	potential surface scanner
$end

$rem
   JOBTYPE  PES_SCAN
   UNRESTRICTED TRUE
   SYM_IGNORE  TRUE
   GEOM_OPT_MAX_CYCLES 400
   SCF_MAX_CYCLES 400
   METHOD   B3LYP
   BASIS   6-31G**
   PDB_PRINT 2
   SCF_CONVERGENCE 6
   THRESH 14
   SCF_PRINT 1
$end
$molecule
0 3
Br 2.482809 0.002204 -0.243997
C -0.520674 -0.000133 0.523524
C -0.876204 -1.297304 -0.124926
C -0.874874 1.297106 -0.125373
H -0.310072 -0.000056 1.590314
H -0.386408 -2.147576 0.362018
H -1.962523 -1.496100 -0.093593
H -0.595420 -1.306601 -1.186815
H -0.386346 2.147443 0.362720
H -1.961318 1.495859 -0.096235
H -0.592574 1.306557 -1.186933
$end
$scan
stre 1 2 3.000000 3.001000 0.100000
$end
