
$comment
	potential surface scanner
$end

$rem
   JOBTYPE  PES_SCAN
   UNRESTRICTED TRUE
   SYM_IGNORE  TRUE
   GEOM_OPT_MAX_CYCLES 400
   SCF_MAX_CYCLES 400
   METHOD   B3LYP
   BASIS   6-31G**
   PDB_PRINT 2
   SCF_CONVERGENCE 6
   THRESH 14
   SCF_PRINT 1
$end
$molecule
0 1
Br 1.848270 -0.000463 -0.072526
C -0.200263 0.000040 0.389548
C -0.807176 -1.278061 -0.152034
C -0.806522 1.278443 -0.152057
H -0.158743 0.000042 1.478603
H -0.307382 -2.164438 0.243827
H -1.863790 -1.317938 0.144844
H -0.759640 -1.308025 -1.244046
H -0.306237 2.164568 0.243750
H -1.863102 1.318894 0.144864
H -0.759015 1.308341 -1.244073
$end
$scan
stre 1 2 2.200000 2.201000 0.100000
$end
