
$comment
	potential surface scanner
$end

$rem
   JOBTYPE  PES_SCAN
   UNRESTRICTED TRUE
   SYM_IGNORE  TRUE
   GEOM_OPT_MAX_CYCLES 400
   SCF_MAX_CYCLES 400
   METHOD   B3LYP
   BASIS   6-31G**
   PDB_PRINT 2
   SCF_CONVERGENCE 6
   THRESH 14
   SCF_PRINT 1
$end
$molecule
0 3
Br 2.037649 0.001556 0.904467
C -0.242460 0.000133 0.155399
C -0.871762 -1.302464 -0.211731
C -0.859450 1.300935 -0.238123
H 0.175206 0.008396 1.205662
H -0.223334 -2.148882 0.035096
H -1.841477 -1.466462 0.288359
H -1.069778 -1.326272 -1.291411
H -0.199688 2.145308 -0.015437
H -1.823444 1.487424 0.265006
H -1.065066 1.301729 -1.316584
$end
$scan
stre 1 2 2.300000 2.301000 0.100000
$end
