
$comment
	potential surface scanner
$end

$rem
   JOBTYPE  PES_SCAN
   UNRESTRICTED TRUE
   SYM_IGNORE  TRUE
   GEOM_OPT_MAX_CYCLES 400
   SCF_MAX_CYCLES 400
   METHOD   B3LYP
   BASIS   6-31G**
   PDB_PRINT 2
   SCF_CONVERGENCE 6
   THRESH 14
   SCF_PRINT 1
$end
$molecule
0 3
Br 4.899396 -0.001192 0.716939
C -0.579757 0.000178 0.238530
C -1.175734 -1.298705 -0.190390
C -1.175245 1.299247 -0.190504
H 0.139380 0.000084 1.053598
H -0.509814 -2.143335 0.013082
H -2.128477 -1.510879 0.327409
H -1.408467 -1.299981 -1.264018
H -0.508932 2.143622 0.012745
H -2.127819 1.511901 0.327408
H -1.408130 1.300459 -1.264097
$end
$scan
stre 1 2 5.400000 5.401000 0.100000
$end
