
$comment
	potential surface scanner
$end

$rem
   JOBTYPE  PES_SCAN
   UNRESTRICTED TRUE
   SYM_IGNORE  TRUE
   GEOM_OPT_MAX_CYCLES 400
   SCF_MAX_CYCLES 400
   METHOD   B3LYP
   BASIS   6-31G**
   PDB_PRINT 2
   SCF_CONVERGENCE 6
   THRESH 14
   SCF_PRINT 1
$end
$molecule
0 3
Br 2.560998 0.006637 -0.251046
C -0.542608 -0.000737 0.528426
C -0.882998 -1.299015 -0.124975
C -0.879879 1.297977 -0.125738
H -0.345695 -0.000604 1.597817
H -0.374983 -2.143833 0.352906
H -1.965509 -1.516704 -0.084031
H -0.611926 -1.297481 -1.189057
H -0.373548 2.142442 0.354529
H -1.962481 1.516022 -0.089192
H -0.604975 1.296695 -1.188936
$end
$scan
stre 1 2 3.100000 3.101000 0.100000
$end
