
$comment
	potential surface scanner
$end

$rem
   JOBTYPE  PES_SCAN
   UNRESTRICTED TRUE
   SYM_IGNORE  TRUE
   GEOM_OPT_MAX_CYCLES 400
   SCF_MAX_CYCLES 400
   METHOD   B3LYP
   BASIS   6-31G**
   PDB_PRINT 2
   SCF_CONVERGENCE 6
   THRESH 14
   SCF_PRINT 1
$end
$molecule
0 3
Br 4.705337 -0.001146 0.561813
C -0.587893 0.000180 0.294007
C -1.147826 -1.298503 -0.181961
C -1.147332 1.299032 -0.182080
H 0.058511 0.000103 1.168043
H -0.501674 -2.143772 0.075572
H -2.139912 -1.509100 0.256190
H -1.291560 -1.299846 -1.271100
H -0.500777 2.144057 0.075244
H -2.139268 1.510117 0.256175
H -1.291206 1.300277 -1.271200
$end
$scan
stre 1 2 5.200000 5.201000 0.100000
$end
