
$comment
	potential surface scanner
$end

$rem
   JOBTYPE  PES_SCAN
   UNRESTRICTED TRUE
   SYM_IGNORE  TRUE
   GEOM_OPT_MAX_CYCLES 400
   SCF_MAX_CYCLES 400
   METHOD   B3LYP
   BASIS   6-31G**
   PDB_PRINT 2
   SCF_CONVERGENCE 6
   THRESH 14
   SCF_PRINT 1
$end
$molecule
0 3
Br 3.602678 0.000235 0.072500
C -0.580819 -0.000033 0.444463
C -1.010815 -1.299620 -0.149085
C -1.009700 1.299884 -0.149160
H -0.163638 -0.000174 1.448357
H -0.441052 -2.142793 0.254768
H -2.077609 -1.513869 0.043493
H -0.894123 -1.303286 -1.241323
H -0.438899 2.142538 0.254315
H -2.076190 1.515298 0.043814
H -0.893436 1.303220 -1.241441
$end
$scan
stre 1 2 4.100000 4.101000 0.100000
$end
