
$comment
	potential surface scanner
$end

$rem
   JOBTYPE  PES_SCAN
   UNRESTRICTED TRUE
   SYM_IGNORE  TRUE
   GEOM_OPT_MAX_CYCLES 400
   SCF_MAX_CYCLES 400
   METHOD   B3LYP
   BASIS   6-31G**
   PDB_PRINT 2
   SCF_CONVERGENCE 6
   THRESH 14
   SCF_PRINT 1
$end
$molecule
0 3
Br 2.138727 0.003570 1.089450
C -0.276048 -0.000091 0.125682
C -0.891793 -1.310290 -0.225570
C -0.879695 1.308520 -0.251546
H 0.258291 0.007078 1.118021
H -0.223891 -2.146214 0.002643
H -1.841793 -1.487567 0.306791
H -1.123681 -1.340173 -1.298487
H -0.199155 2.141415 -0.051104
H -1.821205 1.510470 0.286981
H -1.123359 1.314683 -1.322159
$end
$scan
stre 1 2 2.500000 2.501000 0.100000
$end
