
$comment
	potential surface scanner
$end

$rem
   JOBTYPE  PES_SCAN
   UNRESTRICTED TRUE
   SYM_IGNORE  TRUE
   GEOM_OPT_MAX_CYCLES 400
   SCF_MAX_CYCLES 400
   METHOD   B3LYP
   BASIS   6-31G**
   PDB_PRINT 2
   SCF_CONVERGENCE 6
   THRESH 14
   SCF_PRINT 1
$end
$molecule
0 1
Br 2.391031 -0.000552 -0.111339
C -0.455718 0.000099 0.441850
C -0.864069 -1.293241 -0.150381
C -0.863393 1.293640 -0.150407
H -0.170606 0.000036 1.489782
H -0.280450 -2.125638 0.243839
H -1.920676 -1.461353 0.127913
H -0.810583 -1.281589 -1.241104
H -0.279314 2.125727 0.243784
H -1.919904 1.462339 0.127893
H -0.809918 1.281929 -1.241130
$end
$scan
stre 1 2 3.000000 3.001000 0.100000
$end
