
$comment
	potential surface scanner
$end

$rem
   JOBTYPE  PES_SCAN
   UNRESTRICTED TRUE
   SYM_IGNORE  TRUE
   GEOM_OPT_MAX_CYCLES 400
   SCF_MAX_CYCLES 400
   METHOD   B3LYP
   BASIS   6-31G**
   PDB_PRINT 2
   SCF_CONVERGENCE 6
   THRESH 14
   SCF_PRINT 1
$end
$molecule
0 3
Cl -0.989118 -2.447290 -0.655288
Cl -0.214162 2.389066 0.126896
C -0.732257 0.425729 2.019647
C 0.198169 1.416440 1.540604
C -1.129436 -1.115355 -1.870048
H -1.575721 0.699899 2.654090
H -0.692803 -0.601641 1.661062
H 1.030112 1.827945 2.100544
H -1.047835 -0.162778 -1.348603
H -2.097126 -1.204547 -2.361448
H -0.321926 -1.227464 -2.592050
$end
$scan
stre 1 4 4.500000 4.501000 0.100000
$end
