
$comment
	potential surface scanner
$end

$rem
   JOBTYPE  PES_SCAN
   UNRESTRICTED TRUE
   SYM_IGNORE  TRUE
   GEOM_OPT_MAX_CYCLES 400
   SCF_MAX_CYCLES 400
   METHOD   B3LYP
   BASIS   6-31G**
   PDB_PRINT 2
   SCF_CONVERGENCE 6
   THRESH 14
   SCF_PRINT 1
$end
$molecule
0 3
Cl -1.054004 -2.513434 -0.671359
Cl 0.039241 2.390850 0.111587
C -0.666241 0.394691 1.907014
C 0.207277 1.506822 1.627927
C -1.191442 -1.130149 -1.826766
H -1.671554 0.546900 2.300182
H -0.400926 -0.619875 1.612958
H 0.817614 2.032046 2.353137
H -1.001024 -0.206053 -1.282470
H -2.198173 -1.131963 -2.242089
H -0.452870 -1.269832 -2.614715
$end
$scan
stre 1 4 4.700000 4.701000 0.100000
$end
