
$comment
	potential surface scanner
$end

$rem
   JOBTYPE  PES_SCAN
   UNRESTRICTED TRUE
   SYM_IGNORE  TRUE
   GEOM_OPT_MAX_CYCLES 400
   SCF_MAX_CYCLES 400
   METHOD   B3LYP
   BASIS   6-31G**
   PDB_PRINT 2
   SCF_CONVERGENCE 6
   THRESH 14
   SCF_PRINT 1
$end
$molecule
0 3
Cl -0.986887 -2.484096 -0.677881
Cl -0.026225 2.316157 0.060654
C -0.698781 0.396208 1.951295
C 0.203485 1.458907 1.586130
C -1.167945 -1.104259 -1.832060
H -1.668472 0.606261 2.403665
H -0.494174 -0.637053 1.675921
H 0.871855 1.982271 2.260119
H -1.002096 -0.176736 -1.286173
H -2.175371 -1.135319 -2.244481
H -0.427491 -1.222338 -2.621784
$end
$scan
stre 1 4 4.600000 4.601000 0.100000
$end
