
$comment
	potential surface scanner
$end

$rem
   JOBTYPE  PES_SCAN
   UNRESTRICTED TRUE
   SYM_IGNORE  TRUE
   GEOM_OPT_MAX_CYCLES 400
   SCF_MAX_CYCLES 400
   METHOD   B3LYP
   BASIS   6-31G**
   PDB_PRINT 2
   SCF_CONVERGENCE 6
   THRESH 14
   SCF_PRINT 1
$end
$molecule
0 1
Cl 0.899818 -2.632022 -0.995875
Cl 0.958187 1.939362 0.037950
C -1.058209 0.230881 0.811643
C 0.368709 0.560805 0.796826
C -1.659932 -0.069396 -0.595549
H -1.603504 1.090308 1.235710
H -1.193483 -0.637025 1.461418
H 1.127611 -0.053391 1.272742
H -1.140181 -0.938789 -1.010603
H -2.725819 -0.278840 -0.475988
H -1.545300 0.788106 -1.262877
$end
$scan
stre 1 4 3.800000 3.801000 0.100000
$end
