
$comment
	potential surface scanner
$end

$rem
   JOBTYPE  PES_SCAN
   UNRESTRICTED TRUE
   SYM_IGNORE  TRUE
   GEOM_OPT_MAX_CYCLES 400
   SCF_MAX_CYCLES 400
   METHOD   B3LYP
   BASIS   6-31G**
   PDB_PRINT 2
   SCF_CONVERGENCE 6
   THRESH 14
   SCF_PRINT 1
$end
$molecule
0 1
Cl 0.161702 -2.578321 -1.773026
Cl -1.028926 1.799593 0.237072
C -0.298322 1.604166 2.849017
C -0.372647 1.013510 1.664013
C -1.178248 -1.528375 -2.379765
H -0.640218 2.618723 3.018851
H 0.121230 1.058154 3.688038
H -0.039200 0.003694 1.457865
H -2.120027 -2.052304 -2.222991
H -1.015546 -1.346096 -3.440858
H -1.161900 -0.592746 -1.822818
$end
$scan
stre 1 4 5.100000 5.101000 0.100000
$end
