
$comment
	potential surface scanner
$end

$rem
   JOBTYPE  PES_SCAN
   UNRESTRICTED TRUE
   SYM_IGNORE  TRUE
   GEOM_OPT_MAX_CYCLES 400
   SCF_MAX_CYCLES 400
   METHOD   B3LYP
   BASIS   6-31G**
   PDB_PRINT 2
   SCF_CONVERGENCE 6
   THRESH 14
   SCF_PRINT 1
$end
$molecule
0 1
Cl 1.116537 -2.356508 -0.662844
Cl 1.031774 1.674607 -0.217191
C -1.048790 0.139807 0.758197
C 0.394127 0.434264 0.726299
C -1.740492 0.009480 -0.610611
H -1.516130 0.968469 1.324835
H -1.176213 -0.771448 1.347882
H 1.099656 -0.010080 1.420125
H -1.287690 -0.826445 -1.149878
H -2.804870 -0.184170 -0.457880
H -1.640012 0.922026 -1.203539
$end
$scan
stre 1 4 3.300000 3.301000 0.100000
$end
