
$comment
	potential surface scanner
$end

$rem
   JOBTYPE  PES_SCAN
   UNRESTRICTED TRUE
   SYM_IGNORE  TRUE
   GEOM_OPT_MAX_CYCLES 400
   SCF_MAX_CYCLES 400
   METHOD   B3LYP
   BASIS   6-31G**
   PDB_PRINT 2
   SCF_CONVERGENCE 6
   THRESH 14
   SCF_PRINT 1
$end
$molecule
0 1
Cl 1.205296 -2.179793 -0.492819
Cl 1.067117 1.553684 -0.311171
C -1.043213 0.097218 0.731164
C 0.411263 0.350931 0.679762
C -1.775150 0.037009 -0.614460
H -1.459503 0.917622 1.347892
H -1.181795 -0.826297 1.299805
H 1.079710 0.003039 1.458567
H -1.360751 -0.780178 -1.209994
H -2.838474 -0.145040 -0.440983
H -1.676601 0.971805 -1.172368
$end
$scan
stre 1 4 3.000000 3.001000 0.100000
$end
