
$comment
	potential surface scanner
$end

$rem
   JOBTYPE  PES_SCAN
   UNRESTRICTED TRUE
   SYM_IGNORE  TRUE
   GEOM_OPT_MAX_CYCLES 400
   SCF_MAX_CYCLES 400
   METHOD   B3LYP
   BASIS   6-31G**
   PDB_PRINT 2
   SCF_CONVERGENCE 6
   THRESH 14
   SCF_PRINT 1
$end
$molecule
0 1
Cl 1.170676 -1.790979 -0.365408
Cl 1.104978 1.474302 -0.338794
C -1.023063 0.037508 0.703006
C 0.465019 0.169944 0.607643
C -1.793737 0.024524 -0.616631
H -1.349065 0.886806 1.326560
H -1.218759 -0.870910 1.281121
H 1.046492 0.014892 1.509473
H -1.474337 -0.820193 -1.231118
H -2.864206 -0.071608 -0.416798
H -1.636100 0.945713 -1.183661
$end
$scan
stre 1 4 2.400000 2.401000 0.100000
$end
