
$comment
	potential surface scanner
$end

$rem
   JOBTYPE  PES_SCAN
   UNRESTRICTED TRUE
   SYM_IGNORE  TRUE
   GEOM_OPT_MAX_CYCLES 400
   SCF_MAX_CYCLES 400
   METHOD   B3LYP
   BASIS   6-31G**
   PDB_PRINT 2
   SCF_CONVERGENCE 6
   THRESH 14
   SCF_PRINT 1
$end
$molecule
0 3
Cl -1.119023 -2.622435 -0.745502
Cl 0.128273 2.462874 0.149364
C -0.634775 0.404588 1.845108
C 0.213673 1.555249 1.656763
C -1.216253 -1.158952 -1.802012
H -1.672160 0.510477 2.163736
H -0.302045 -0.596396 1.574766
H 0.733888 2.092358 2.441528
H -0.993817 -0.281615 -1.196044
H -2.224186 -1.099042 -2.210030
H -0.485674 -1.267104 -2.602272
$end
$scan
stre 1 4 4.900000 4.901000 0.100000
$end
