
$comment
	potential surface scanner
$end

$rem
   JOBTYPE  PES_SCAN
   UNRESTRICTED TRUE
   SYM_IGNORE  TRUE
   GEOM_OPT_MAX_CYCLES 400
   SCF_MAX_CYCLES 400
   METHOD   B3LYP
   BASIS   6-31G**
   PDB_PRINT 2
   SCF_CONVERGENCE 6
   THRESH 14
   SCF_PRINT 1
$end
$molecule
0 3
Cl -0.388782 -1.695634 -0.421910
Cl -0.646425 2.191132 0.163753
C -0.909675 0.556613 2.393752
C -0.030732 1.054136 1.367102
C -0.911967 -0.983922 -1.998216
H -1.010705 1.071856 3.347686
H -1.577700 -0.283551 2.206250
H 0.932864 0.640416 1.099784
H -1.096288 0.077887 -1.842753
H -1.819949 -1.493279 -2.317771
H -0.112747 -1.135647 -2.722271
$end
$scan
stre 1 4 3.200000 3.201000 0.100000
$end
