
$comment
	potential surface scanner
$end

$rem
   JOBTYPE  PES_SCAN
   UNRESTRICTED TRUE
   SYM_IGNORE  TRUE
   GEOM_OPT_MAX_CYCLES 400
   SCF_MAX_CYCLES 400
   METHOD   B3LYP
   BASIS   6-31G**
   PDB_PRINT 2
   SCF_CONVERGENCE 6
   THRESH 14
   SCF_PRINT 1
$end
$molecule
0 3
Cl -1.326362 -2.643335 -0.788695
Cl 0.058186 2.423503 0.097656
C -0.581334 0.379770 1.862024
C 0.186242 1.579503 1.638170
C -1.211066 -1.145049 -1.792614
H -1.625632 0.423295 2.172242
H -0.177334 -0.605315 1.633533
H 0.672664 2.172229 2.404139
H -0.970567 -0.309536 -1.136993
H -2.171426 -0.986025 -2.281064
H -0.425469 -1.289038 -2.532993
$end
$scan
stre 1 4 5.000000 5.001000 0.100000
$end
