
$comment
	potential surface scanner
$end

$rem
   JOBTYPE  PES_SCAN
   UNRESTRICTED TRUE
   SYM_IGNORE  TRUE
   GEOM_OPT_MAX_CYCLES 400
   SCF_MAX_CYCLES 400
   METHOD   B3LYP
   BASIS   6-31G**
   PDB_PRINT 2
   SCF_CONVERGENCE 6
   THRESH 14
   SCF_PRINT 1
$end
$molecule
0 1
Cl 0.262977 -2.785717 -1.608201
Cl 0.959549 1.946309 -0.053606
C -0.996164 0.208675 0.821622
C 0.334195 0.773480 0.977732
C -1.497274 -0.178719 -0.587195
H -1.684015 1.010745 1.167810
H -1.103088 -0.618286 1.529273
H 0.997507 0.501173 1.792788
H -0.946914 -1.088883 -0.909721
H -2.568464 -0.387471 -0.539609
H -1.330411 0.618696 -1.315494
$end
$scan
stre 1 4 4.500000 4.501000 0.100000
$end
