
$comment
	potential surface scanner
$end

$rem
   JOBTYPE  PES_SCAN
   UNRESTRICTED TRUE
   SYM_IGNORE  TRUE
   GEOM_OPT_MAX_CYCLES 400
   SCF_MAX_CYCLES 400
   METHOD   B3LYP
   BASIS   6-31G**
   PDB_PRINT 2
   SCF_CONVERGENCE 6
   THRESH 14
   SCF_PRINT 1
$end
$molecule
0 3
Cl -1.343013 -2.687459 -0.853317
Cl 0.065515 2.424722 0.108336
C -0.573395 0.400349 1.894261
C 0.192197 1.599152 1.658276
C -1.219641 -1.164840 -1.819246
H -1.618044 0.444871 2.203036
H -0.166831 -0.586076 1.676042
H 0.679855 2.199214 2.417671
H -0.985580 -0.345039 -1.141824
H -2.175812 -0.994503 -2.312019
H -0.427348 -1.290391 -2.555811
$end
$scan
stre 1 4 5.100000 5.101000 0.100000
$end
