
$comment
	potential surface scanner
$end

$rem
   JOBTYPE  PES_SCAN
   UNRESTRICTED TRUE
   SYM_IGNORE  TRUE
   GEOM_OPT_MAX_CYCLES 400
   SCF_MAX_CYCLES 400
   METHOD   B3LYP
   BASIS   6-31G**
   PDB_PRINT 2
   SCF_CONVERGENCE 6
   THRESH 14
   SCF_PRINT 1
$end
$molecule
0 3
Cl -1.097194 -2.577552 -0.693904
Cl 0.117085 2.438848 0.125062
C -0.644623 0.385204 1.828059
C 0.206089 1.532626 1.633732
C -1.207118 -1.134919 -1.778867
H -1.680543 0.494144 2.150293
H -0.318161 -0.615912 1.550546
H 0.735171 2.067840 2.413717
H -0.988007 -0.245002 -1.190817
H -2.216904 -1.090056 -2.183924
H -0.477896 -1.255219 -2.578492
$end
$scan
stre 1 4 4.800000 4.801000 0.100000
$end
