
$comment
	potential surface scanner
$end

$rem
   JOBTYPE  PES_SCAN
   UNRESTRICTED TRUE
   SYM_IGNORE  TRUE
   GEOM_OPT_MAX_CYCLES 400
   SCF_MAX_CYCLES 400
   METHOD   B3LYP
   BASIS   6-31G**
   PDB_PRINT 2
   SCF_CONVERGENCE 6
   THRESH 14
   SCF_PRINT 1
$end
$molecule
0 3
Cl -0.682574 -1.416145 -0.088201
Cl -1.041046 2.219007 0.196893
C -0.859329 0.360729 2.227939
C -0.361833 0.637510 0.896495
C -0.767309 -0.859485 -1.804853
H -0.418688 0.825252 3.108661
H -1.795977 -0.174195 2.362489
H 0.712788 0.674691 0.737138
H -0.723321 0.229369 -1.799244
H -1.711393 -1.206989 -2.220501
H 0.076577 -1.289736 -2.341413
$end
$scan
stre 1 4 2.200000 2.201000 0.100000
$end
