
$comment
	potential surface scanner
$end

$rem
   JOBTYPE  PES_SCAN
   UNRESTRICTED TRUE
   SYM_IGNORE  TRUE
   GEOM_OPT_MAX_CYCLES 400
   SCF_MAX_CYCLES 400
   METHOD   B3LYP
   BASIS   6-31G**
   PDB_PRINT 2
   SCF_CONVERGENCE 6
   THRESH 14
   SCF_PRINT 1
$end
$molecule
0 3
Cl -1.367639 -2.774018 -0.983144
Cl 0.085552 2.432417 0.135632
C -0.559483 0.444196 1.958836
C 0.205507 1.639151 1.701842
C -1.237721 -1.207846 -1.875617
H -1.604103 0.492320 2.267006
H -0.150203 -0.545071 1.759399
H 0.695201 2.251447 2.450042
H -1.013058 -0.418393 -1.159493
H -2.188885 -1.016831 -2.370483
H -0.437265 -1.297371 -2.608615
$end
$scan
stre 1 4 5.300000 5.301000 0.100000
$end
