
$comment
	potential surface scanner
$end

$rem
   JOBTYPE  PES_SCAN
   UNRESTRICTED TRUE
   SYM_IGNORE  TRUE
   GEOM_OPT_MAX_CYCLES 400
   SCF_MAX_CYCLES 400
   METHOD   B3LYP
   BASIS   6-31G**
   PDB_PRINT 2
   SCF_CONVERGENCE 6
   THRESH 14
   SCF_PRINT 1
$end
$molecule
0 3
Cl -0.856639 -2.371811 -0.630511
Cl -0.286255 2.362176 0.127525
C -0.782712 0.442741 2.073023
C 0.180950 1.341530 1.489514
C -1.099685 -1.094097 -1.885586
H -1.519870 0.792995 2.796166
H -0.875254 -0.582740 1.719494
H 1.101661 1.670862 1.957534
H -1.089461 -0.122326 -1.394361
H -2.058162 -1.272278 -2.370950
H -0.286676 -1.167047 -2.606443
$end
$scan
stre 1 4 4.300000 4.301000 0.100000
$end
