
$comment
	potential surface scanner
$end

$rem
   JOBTYPE  PES_SCAN
   UNRESTRICTED TRUE
   SYM_IGNORE  TRUE
   GEOM_OPT_MAX_CYCLES 400
   SCF_MAX_CYCLES 400
   METHOD   B3LYP
   BASIS   6-31G**
   PDB_PRINT 2
   SCF_CONVERGENCE 6
   THRESH 14
   SCF_PRINT 1
$end
$molecule
0 3
Cl -0.636224 -2.237919 -0.594791
Cl -0.335824 2.322966 0.128670
C -0.849478 0.475480 2.139263
C 0.148443 1.237961 1.433153
C -1.067325 -1.065040 -1.901819
H -1.433857 0.915567 2.947783
H -1.123825 -0.524003 1.806972
H 1.166619 1.410165 1.762251
H -1.192628 -0.081934 -1.451151
H -1.992828 -1.400091 -2.367895
H -0.255175 -1.053146 -2.627033
$end
$scan
stre 1 4 4.000000 4.001000 0.100000
$end
