
$comment
	potential surface scanner
$end

$rem
   JOBTYPE  PES_SCAN
   UNRESTRICTED TRUE
   SYM_IGNORE  TRUE
   GEOM_OPT_MAX_CYCLES 400
   SCF_MAX_CYCLES 400
   METHOD   B3LYP
   BASIS   6-31G**
   PDB_PRINT 2
   SCF_CONVERGENCE 6
   THRESH 14
   SCF_PRINT 1
$end
$molecule
0 1
Cl 0.766531 -2.957665 -1.397181
Cl 0.909967 2.170675 0.349416
C -1.080673 0.337171 0.853781
C 0.336618 0.676981 0.859924
C -1.579748 -0.148687 -0.563289
H -1.679367 1.210767 1.137410
H -1.241876 -0.478396 1.566330
H 1.110255 -0.043724 1.112937
H -1.042540 -1.055451 -0.853582
H -2.652256 -0.343840 -0.479943
H -1.419011 0.632170 -1.310404
$end
$scan
stre 1 4 4.400000 4.401000 0.100000
$end
