
$comment
	potential surface scanner
$end

$rem
   JOBTYPE  PES_SCAN
   UNRESTRICTED TRUE
   SYM_IGNORE  TRUE
   GEOM_OPT_MAX_CYCLES 400
   SCF_MAX_CYCLES 400
   METHOD   B3LYP
   BASIS   6-31G**
   PDB_PRINT 2
   SCF_CONVERGENCE 6
   THRESH 14
   SCF_PRINT 1
$end
$molecule
0 1
Cl 1.128708 -1.539465 -0.312571
Cl 1.115016 1.482861 -0.306109
C -1.005446 0.006283 0.689147
C 0.507102 0.031722 0.556324
C -1.797829 0.003989 -0.617149
H -1.271813 0.882362 1.294783
H -1.248995 -0.879282 1.287708
H 1.016064 0.002362 1.516553
H -1.559582 -0.875382 -1.220788
H -2.869541 -0.011373 -0.399992
H -1.585784 0.895924 -1.212508
$end
$scan
stre 1 4 2.000000 2.001000 0.100000
$end
