
$comment
	potential surface scanner
$end

$rem
   JOBTYPE  PES_SCAN
   UNRESTRICTED TRUE
   SYM_IGNORE  TRUE
   GEOM_OPT_MAX_CYCLES 400
   SCF_MAX_CYCLES 400
   METHOD   B3LYP
   BASIS   6-31G**
   PDB_PRINT 2
   SCF_CONVERGENCE 6
   THRESH 14
   SCF_PRINT 1
$end
$molecule
0 1
Cl -0.279011 -2.929855 -1.925274
Cl 0.826739 2.185423 0.098624
C -0.961555 0.231830 0.854148
C 0.299095 0.907475 1.066497
C -1.339566 -0.264121 -0.580412
H -1.744625 0.986713 1.069522
H -1.063580 -0.569443 1.590012
H 0.994252 0.637014 1.854854
H -0.773105 -1.192124 -0.811880
H -2.408802 -0.483746 -0.601332
H -1.121943 0.490834 -1.339361
$end
$scan
stre 1 4 5.000000 5.001000 0.100000
$end
