
$comment
	potential surface scanner
$end

$rem
   JOBTYPE  PES_SCAN
   UNRESTRICTED TRUE
   SYM_IGNORE  TRUE
   GEOM_OPT_MAX_CYCLES 400
   SCF_MAX_CYCLES 400
   METHOD   B3LYP
   BASIS   6-31G**
   PDB_PRINT 2
   SCF_CONVERGENCE 6
   THRESH 14
   SCF_PRINT 1
$end
$molecule
0 3
Cl -0.972239 -2.407608 -0.612301
Cl -0.228274 2.367982 0.100031
C -0.742333 0.407904 1.999811
C 0.191924 1.387636 1.506860
C -1.120162 -1.091356 -1.842970
H -1.575290 0.691654 2.643919
H -0.711521 -0.621559 1.647936
H 1.028210 1.797634 2.061745
H -1.046733 -0.132404 -1.332343
H -2.085802 -1.194115 -2.335752
H -0.309882 -1.205764 -2.561530
$end
$scan
stre 1 4 4.400000 4.401000 0.100000
$end
