
$comment
	potential surface scanner
$end

$rem
   JOBTYPE  PES_SCAN
   UNRESTRICTED TRUE
   SYM_IGNORE  TRUE
   GEOM_OPT_MAX_CYCLES 400
   SCF_MAX_CYCLES 400
   METHOD   B3LYP
   BASIS   6-31G**
   PDB_PRINT 2
   SCF_CONVERGENCE 6
   THRESH 14
   SCF_PRINT 1
$end
$molecule
0 1
Cl 1.182204 -1.919886 -0.400447
Cl 1.096860 1.486091 -0.340926
C -1.030644 0.056912 0.711511
C 0.445332 0.234435 0.631988
C -1.788931 0.031809 -0.616134
H -1.386671 0.894582 1.338108
H -1.204873 -0.858916 1.283840
H 1.059158 0.013002 1.496922
H -1.428629 -0.797110 -1.229547
H -2.856705 -0.104126 -0.426415
H -1.659202 0.963208 -1.173506
$end
$scan
stre 1 4 2.600000 2.601000 0.100000
$end
