
$comment
	potential surface scanner
$end

$rem
   JOBTYPE  PES_SCAN
   UNRESTRICTED TRUE
   SYM_IGNORE  TRUE
   GEOM_OPT_MAX_CYCLES 400
   SCF_MAX_CYCLES 400
   METHOD   B3LYP
   BASIS   6-31G**
   PDB_PRINT 2
   SCF_CONVERGENCE 6
   THRESH 14
   SCF_PRINT 1
$end
$molecule
0 3
Cl -0.402899 -1.682293 -0.341796
Cl -0.687997 2.284078 0.208370
C -0.923380 0.483034 2.303528
C -0.135581 0.895862 1.168719
C -0.884343 -0.960896 -1.925782
H -0.873318 1.010561 3.256306
H -1.672847 -0.298508 2.202403
H 0.933374 0.744229 1.074897
H -0.985763 0.114843 -1.789572
H -1.832484 -1.403339 -2.227783
H -0.106870 -1.187566 -2.653885
$end
$scan
stre 1 4 2.900000 2.901000 0.100000
$end
