
$comment
	potential surface scanner
$end

$rem
   JOBTYPE  PES_SCAN
   UNRESTRICTED TRUE
   SYM_IGNORE  TRUE
   GEOM_OPT_MAX_CYCLES 400
   SCF_MAX_CYCLES 400
   METHOD   B3LYP
   BASIS   6-31G**
   PDB_PRINT 2
   SCF_CONVERGENCE 6
   THRESH 14
   SCF_PRINT 1
$end
$molecule
0 1
Cl 0.057193 -2.811992 -1.773797
Cl 0.964350 1.959183 -0.051771
C -0.974104 0.205695 0.829289
C 0.320774 0.832432 1.020608
C -1.442606 -0.212540 -0.578799
H -1.700142 0.988484 1.144246
H -1.073720 -0.607124 1.555047
H 0.944154 0.638765 1.887858
H -0.886419 -1.130521 -0.887546
H -2.511954 -0.433104 -0.548953
H -1.269628 0.570722 -1.320784
$end
$scan
stre 1 4 4.700000 4.701000 0.100000
$end
