
$comment
	potential surface scanner
$end

$rem
   JOBTYPE  PES_SCAN
   UNRESTRICTED TRUE
   SYM_IGNORE  TRUE
   GEOM_OPT_MAX_CYCLES 400
   SCF_MAX_CYCLES 400
   METHOD   B3LYP
   BASIS   6-31G**
   PDB_PRINT 2
   SCF_CONVERGENCE 6
   THRESH 14
   SCF_PRINT 1
$end
$molecule
0 3
Cl -1.356457 -2.731165 -0.918692
Cl 0.074094 2.427174 0.120727
C -0.566334 0.421994 1.927302
C 0.198722 1.618791 1.679250
C -1.228420 -1.185418 -1.847267
H -1.611189 0.468251 2.234863
H -0.157827 -0.565853 1.719132
H 0.687903 2.225381 2.432423
H -0.999763 -0.381430 -1.149633
H -2.181792 -1.004755 -2.341613
H -0.431034 -1.292970 -2.581087
$end
$scan
stre 1 4 5.200000 5.201000 0.100000
$end
