
$comment
	potential surface scanner
$end

$rem
   JOBTYPE  PES_SCAN
   UNRESTRICTED TRUE
   SYM_IGNORE  TRUE
   GEOM_OPT_MAX_CYCLES 400
   SCF_MAX_CYCLES 400
   METHOD   B3LYP
   BASIS   6-31G**
   PDB_PRINT 2
   SCF_CONVERGENCE 6
   THRESH 14
   SCF_PRINT 1
$end
$molecule
0 3
Cl -0.645495 -1.443858 -0.123461
Cl -0.992213 2.215647 0.194739
C -0.866294 0.379137 2.250126
C -0.323362 0.681884 0.943053
C -0.785603 -0.874409 -1.831213
H -0.505716 0.883422 3.145861
H -1.763281 -0.227164 2.346478
H 0.752271 0.688390 0.791707
H -0.743035 0.214277 -1.820688
H -1.740982 -1.219948 -2.222356
H 0.041605 -1.297371 -2.398843
$end
$scan
stre 1 4 2.300000 2.301000 0.100000
$end
