
$comment
	potential surface scanner
$end

$rem
   JOBTYPE  PES_SCAN
   UNRESTRICTED TRUE
   SYM_IGNORE  TRUE
   GEOM_OPT_MAX_CYCLES 400
   SCF_MAX_CYCLES 400
   METHOD   B3LYP
   BASIS   6-31G**
   PDB_PRINT 2
   SCF_CONVERGENCE 6
   THRESH 14
   SCF_PRINT 1
$end
$molecule
0 3
Cl -0.456242 -2.016230 -0.559940
Cl -0.530414 2.294066 0.196715
C -0.899845 0.554810 2.327798
C 0.051656 1.254978 1.501914
C -0.977673 -1.054144 -1.998979
H -1.268788 0.992112 3.253659
H -1.355377 -0.376621 1.992499
H 1.090505 0.973522 1.371832
H -1.044703 -0.008457 -1.702714
H -1.947510 -1.427637 -2.324216
H -0.233711 -1.186391 -2.783165
$end
$scan
stre 1 4 3.800000 3.801000 0.100000
$end
