
$comment
	potential surface scanner
$end

$rem
   JOBTYPE  PES_SCAN
   UNRESTRICTED TRUE
   SYM_IGNORE  TRUE
   GEOM_OPT_MAX_CYCLES 400
   SCF_MAX_CYCLES 400
   METHOD   B3LYP
   BASIS   6-31G**
   PDB_PRINT 2
   SCF_CONVERGENCE 6
   THRESH 14
   SCF_PRINT 1
$end
$molecule
0 1
Cl 1.196157 -2.050243 -0.439860
Cl 1.084273 1.511119 -0.333366
C -1.037511 0.076963 0.720647
C 0.427093 0.294589 0.655721
C -1.783117 0.036610 -0.615523
H -1.423242 0.904891 1.345403
H -1.192674 -0.843877 1.289820
H 1.069862 0.008265 1.479266
H -1.389582 -0.781123 -1.223801
H -2.847758 -0.130676 -0.434524
H -1.675602 0.973484 -1.168388
$end
$scan
stre 1 4 2.800000 2.801000 0.100000
$end
