
$comment
	potential surface scanner
$end

$rem
   JOBTYPE  PES_SCAN
   UNRESTRICTED TRUE
   SYM_IGNORE  TRUE
   GEOM_OPT_MAX_CYCLES 400
   SCF_MAX_CYCLES 400
   METHOD   B3LYP
   BASIS   6-31G**
   PDB_PRINT 2
   SCF_CONVERGENCE 6
   THRESH 14
   SCF_PRINT 1
$end
$molecule
0 1
Cl 1.202610 -2.116006 -0.461879
Cl 1.075961 1.529839 -0.325114
C -1.040596 0.087067 0.725564
C 0.418775 0.323340 0.667366
C -1.779627 0.037928 -0.615132
H -1.441507 0.910439 1.347751
H -1.186848 -0.835766 1.293625
H 1.075096 0.005273 1.468464
H -1.373446 -0.777249 -1.218689
H -2.843101 -0.140144 -0.438057
H -1.679419 0.975280 -1.168503
$end
$scan
stre 1 4 2.900000 2.901000 0.100000
$end
