
$comment
	potential surface scanner
$end

$rem
   JOBTYPE  PES_SCAN
   UNRESTRICTED TRUE
   SYM_IGNORE  TRUE
   GEOM_OPT_MAX_CYCLES 400
   SCF_MAX_CYCLES 400
   METHOD   B3LYP
   BASIS   6-31G**
   PDB_PRINT 2
   SCF_CONVERGENCE 6
   THRESH 14
   SCF_PRINT 1
$end
$molecule
0 3
Cl -0.546010 -1.512779 -0.201675
Cl -0.846925 2.221859 0.184925
C -0.890490 0.423667 2.282287
C -0.238484 0.753308 1.035369
C -0.832386 -0.903130 -1.876826
H -0.667120 0.965676 3.201202
H -1.728230 -0.268875 2.303149
H 0.837892 0.686562 0.915484
H -0.886371 0.183656 -1.830620
H -1.771187 -1.323029 -2.234358
H -0.002795 -1.226908 -2.503533
$end
$scan
stre 1 4 2.500000 2.501000 0.100000
$end
