
$comment
	potential surface scanner
$end

$rem
   JOBTYPE  PES_SCAN
   UNRESTRICTED TRUE
   SYM_IGNORE  TRUE
   GEOM_OPT_MAX_CYCLES 400
   SCF_MAX_CYCLES 400
   METHOD   B3LYP
   BASIS   6-31G**
   PDB_PRINT 2
   SCF_CONVERGENCE 6
   THRESH 14
   SCF_PRINT 1
$end
$molecule
0 1
Cl 0.103376 -2.644818 -1.829598
Cl -1.008823 1.695973 0.244367
C -0.315930 1.636904 2.872098
C -0.319625 1.007240 1.705023
C -1.194408 -1.530799 -2.414393
H -0.741176 2.625410 3.004427
H 0.129401 1.151401 3.734548
H 0.096795 0.021259 1.536329
H -2.154699 -2.028041 -2.284684
H -1.013112 -1.319070 -3.467259
H -1.153900 -0.615458 -1.825460
$end
$scan
stre 1 4 5.200000 5.201000 0.100000
$end
