
$comment
	potential surface scanner
$end

$rem
   JOBTYPE  PES_SCAN
   UNRESTRICTED TRUE
   SYM_IGNORE  TRUE
   GEOM_OPT_MAX_CYCLES 400
   SCF_MAX_CYCLES 400
   METHOD   B3LYP
   BASIS   6-31G**
   PDB_PRINT 2
   SCF_CONVERGENCE 6
   THRESH 14
   SCF_PRINT 1
$end
$molecule
0 1
Cl 1.136630 -2.296566 -0.609861
Cl 1.043797 1.635362 -0.248088
C -1.046966 0.126782 0.750067
C 0.399687 0.408864 0.712094
C -1.750542 0.017617 -0.612031
H -1.498955 0.952649 1.333299
H -1.177003 -0.788744 1.332799
H 1.094611 -0.006434 1.433563
H -1.306290 -0.811590 -1.168126
H -2.814296 -0.175353 -0.454092
H -1.652776 0.937414 -1.194229
$end
$scan
stre 1 4 3.200000 3.201000 0.100000
$end
