
$comment
	potential surface scanner
$end

$rem
   JOBTYPE  PES_SCAN
   UNRESTRICTED TRUE
   SYM_IGNORE  TRUE
   GEOM_OPT_MAX_CYCLES 400
   SCF_MAX_CYCLES 400
   METHOD   B3LYP
   BASIS   6-31G**
   PDB_PRINT 2
   SCF_CONVERGENCE 6
   THRESH 14
   SCF_PRINT 1
$end
$molecule
0 3
Cl -0.402161 -1.737767 -0.369345
Cl -0.682907 2.304643 0.220053
C -0.923539 0.494227 2.308509
C -0.126793 0.928118 1.188612
C -0.887265 -0.973442 -1.932139
H -0.889601 1.010679 3.268056
H -1.662339 -0.295210 2.190521
H 0.937846 0.758534 1.080379
H -0.980303 0.099143 -1.768942
H -1.839777 -1.402067 -2.240222
H -0.115268 -1.186851 -2.670078
$end
$scan
stre 1 4 3.000000 3.001000 0.100000
$end
