
$comment
	potential surface scanner
$end

$rem
   JOBTYPE  PES_SCAN
   UNRESTRICTED TRUE
   SYM_IGNORE  TRUE
   GEOM_OPT_MAX_CYCLES 400
   SCF_MAX_CYCLES 400
   METHOD   B3LYP
   BASIS   6-31G**
   PDB_PRINT 2
   SCF_CONVERGENCE 6
   THRESH 14
   SCF_PRINT 1
$end
$molecule
0 1
Cl 1.033638 -2.476542 -0.778061
Cl 1.002014 1.768628 -0.140401
C -1.051478 0.169486 0.777911
C 0.383613 0.487262 0.755997
C -1.711189 -0.013394 -0.607666
H -1.552150 1.005801 1.301637
H -1.174986 -0.730697 1.384384
H 1.112588 -0.019204 1.380465
H -1.225639 -0.855676 -1.109033
H -2.774755 -0.221754 -0.469461
H -1.613759 0.886089 -1.220377
$end
$scan
stre 1 4 3.500000 3.501000 0.100000
$end
