
$comment
	potential surface scanner
$end

$rem
   JOBTYPE  PES_SCAN
   UNRESTRICTED TRUE
   SYM_IGNORE  TRUE
   GEOM_OPT_MAX_CYCLES 400
   SCF_MAX_CYCLES 400
   METHOD   B3LYP
   BASIS   6-31G**
   PDB_PRINT 2
   SCF_CONVERGENCE 6
   THRESH 14
   SCF_PRINT 1
$end
$molecule
0 3
Cl -0.510665 -1.537082 -0.245952
Cl -0.800174 2.222559 0.188211
C -0.898270 0.445207 2.306267
C -0.204789 0.790549 1.087680
C -0.849709 -0.920598 -1.908925
H -0.734759 0.998855 3.231059
H -1.702708 -0.286334 2.298831
H 0.870652 0.701233 0.978271
H -0.920858 0.164708 -1.854238
H -1.789907 -1.353572 -2.246903
H -0.030920 -1.225519 -2.558896
$end
$scan
stre 1 4 2.600000 2.601000 0.100000
$end
