
$comment
	potential surface scanner
$end

$rem
   JOBTYPE  PES_SCAN
   UNRESTRICTED TRUE
   SYM_IGNORE  TRUE
   GEOM_OPT_MAX_CYCLES 400
   SCF_MAX_CYCLES 400
   METHOD   B3LYP
   BASIS   6-31G**
   PDB_PRINT 2
   SCF_CONVERGENCE 6
   THRESH 14
   SCF_PRINT 1
$end
$molecule
0 1
Cl 1.163211 -2.239256 -0.551505
Cl 1.054644 1.596920 -0.279030
C -1.045093 0.112812 0.741080
C 0.405424 0.381684 0.696063
C -1.761892 0.027094 -0.613508
H -1.480337 0.934619 1.342533
H -1.177643 -0.807949 1.315296
H 1.088827 -0.001587 1.445223
H -1.329165 -0.795885 -1.187534
H -2.825236 -0.162688 -0.449079
H -1.664842 0.954237 -1.184144
$end
$scan
stre 1 4 3.100000 3.101000 0.100000
$end
