
$comment
	potential surface scanner
$end

$rem
   JOBTYPE  PES_SCAN
   UNRESTRICTED TRUE
   SYM_IGNORE  TRUE
   GEOM_OPT_MAX_CYCLES 400
   SCF_MAX_CYCLES 400
   METHOD   B3LYP
   BASIS   6-31G**
   PDB_PRINT 2
   SCF_CONVERGENCE 6
   THRESH 14
   SCF_PRINT 1
$end
$molecule
0 3
Cl -0.595983 -1.476836 -0.161070
Cl -0.923328 2.220128 0.191911
C -0.877650 0.399714 2.266908
C -0.280364 0.720168 0.989389
C -0.808414 -0.889490 -1.855059
H -0.590577 0.927022 3.176299
H -1.742687 -0.256110 2.323102
H 0.796464 0.693217 0.853790
H -0.803436 0.199605 -1.831137
H -1.761716 -1.263756 -2.224503
H 0.015586 -1.273655 -2.454227
$end
$scan
stre 1 4 2.400000 2.401000 0.100000
$end
