
$comment
	potential surface scanner
$end

$rem
   JOBTYPE  PES_SCAN
   UNRESTRICTED TRUE
   SYM_IGNORE  TRUE
   GEOM_OPT_MAX_CYCLES 400
   SCF_MAX_CYCLES 400
   METHOD   B3LYP
   BASIS   6-31G**
   PDB_PRINT 2
   SCF_CONVERGENCE 6
   THRESH 14
   SCF_PRINT 1
$end
$molecule
0 1
Cl 0.886222 -2.820156 -1.317579
Cl 0.953068 2.091415 0.290149
C -1.087321 0.331564 0.849180
C 0.341606 0.625727 0.836320
C -1.614538 -0.138017 -0.560280
H -1.652947 1.224385 1.141112
H -1.263788 -0.477006 1.565793
H 1.095495 -0.112063 1.100594
H -1.087955 -1.047433 -0.859965
H -2.687779 -0.322840 -0.464275
H -1.454163 0.644425 -1.305650
$end
$scan
stre 1 4 4.200000 4.201000 0.100000
$end
