
$comment
	potential surface scanner
$end

$rem
   JOBTYPE  PES_SCAN
   UNRESTRICTED TRUE
   SYM_IGNORE  TRUE
   GEOM_OPT_MAX_CYCLES 400
   SCF_MAX_CYCLES 400
   METHOD   B3LYP
   BASIS   6-31G**
   PDB_PRINT 2
   SCF_CONVERGENCE 6
   THRESH 14
   SCF_PRINT 1
$end
$molecule
0 3
Cl -0.703866 -2.285876 -0.608259
Cl -0.309826 2.328595 0.122504
C -0.827406 0.463197 2.114530
C 0.166100 1.269400 1.451638
C -1.082133 -1.073532 -1.895351
H -1.471936 0.880101 2.888958
H -1.037597 -0.550136 1.777572
H 1.150047 1.506758 1.839639
H -1.172544 -0.094503 -1.427655
H -2.017055 -1.364383 -2.372145
H -0.265887 -1.079615 -2.616029
$end
$scan
stre 1 4 4.100000 4.101000 0.100000
$end
