
$comment
	potential surface scanner
$end

$rem
   JOBTYPE  PES_SCAN
   UNRESTRICTED TRUE
   SYM_IGNORE  TRUE
   GEOM_OPT_MAX_CYCLES 400
   SCF_MAX_CYCLES 400
   METHOD   B3LYP
   BASIS   6-31G**
   PDB_PRINT 2
   SCF_CONVERGENCE 6
   THRESH 14
   SCF_PRINT 1
$end
$molecule
0 3
Cl -0.774280 -2.325404 -0.614529
Cl -0.287158 2.347110 0.126745
C -0.804302 0.451862 2.090417
C 0.177402 1.309505 1.476342
C -1.095128 -1.084551 -1.889435
H -1.505183 0.833576 2.833478
H -0.952066 -0.567434 1.738293
H 1.131578 1.590154 1.907289
H -1.145199 -0.106764 -1.412917
H -2.040045 -1.329688 -2.372175
H -0.277722 -1.118361 -2.608105
$end
$scan
stre 1 4 4.200000 4.201000 0.100000
$end
