
$comment
	potential surface scanner
$end

$rem
   JOBTYPE  PES_SCAN
   UNRESTRICTED TRUE
   SYM_IGNORE  TRUE
   GEOM_OPT_MAX_CYCLES 400
   SCF_MAX_CYCLES 400
   METHOD   B3LYP
   BASIS   6-31G**
   PDB_PRINT 2
   SCF_CONVERGENCE 6
   THRESH 14
   SCF_PRINT 1
$end
$molecule
0 3
Cl -0.393430 -1.640198 -0.392901
Cl -0.649323 2.180093 0.156382
C -0.910409 0.544746 2.387236
C -0.041098 1.023992 1.344326
C -0.909579 -0.973462 -1.990966
H -0.993897 1.068843 3.338301
H -1.590164 -0.289251 2.215419
H 0.933512 0.629723 1.090194
H -1.103760 0.090334 -1.863245
H -1.810749 -1.498283 -2.304793
H -0.103209 -1.136530 -2.704548
$end
$scan
stre 1 4 3.100000 3.101000 0.100000
$end
