
$comment
	potential surface scanner
$end

$rem
   JOBTYPE  PES_SCAN
   UNRESTRICTED TRUE
   SYM_IGNORE  TRUE
   GEOM_OPT_MAX_CYCLES 400
   SCF_MAX_CYCLES 400
   METHOD   B3LYP
   BASIS   6-31G**
   PDB_PRINT 2
   SCF_CONVERGENCE 6
   THRESH 14
   SCF_PRINT 1
$end
$molecule
0 1
Cl 1.188603 -1.984171 -0.420985
Cl 1.091334 1.496595 -0.338260
C -1.034363 0.067138 0.716205
C 0.435797 0.264961 0.644233
C -1.786035 0.034306 -0.615798
H -1.405157 0.899924 1.342253
H -1.198910 -0.851370 1.286805
H 1.064622 0.010936 1.488964
H -1.407762 -0.788620 -1.226585
H -2.852245 -0.118447 -0.430783
H -1.667986 0.968749 -1.170654
$end
$scan
stre 1 4 2.700000 2.701000 0.100000
$end
