
$comment
	potential surface scanner
$end

$rem
   JOBTYPE  PES_SCAN
   UNRESTRICTED TRUE
   SYM_IGNORE  TRUE
   GEOM_OPT_MAX_CYCLES 400
   SCF_MAX_CYCLES 400
   METHOD   B3LYP
   BASIS   6-31G**
   PDB_PRINT 2
   SCF_CONVERGENCE 6
   THRESH 14
   SCF_PRINT 1
$end
$molecule
0 3
Cl -0.379790 -1.811206 -0.483999
Cl -0.637788 2.222652 0.183579
C -0.909543 0.579584 2.403378
C -0.013316 1.110572 1.407802
C -0.916856 -1.006401 -2.010951
H -1.040503 1.074423 3.363963
H -1.555944 -0.269966 2.184660
H 0.932791 0.668257 1.120094
H -1.079545 0.048514 -1.796189
H -1.838778 -1.482936 -2.340917
H -0.132832 -1.133485 -2.756012
$end
$scan
stre 1 4 3.400000 3.401000 0.100000
$end
