
$comment
	potential surface scanner
$end

$rem
   JOBTYPE  PES_SCAN
   UNRESTRICTED TRUE
   SYM_IGNORE  TRUE
   GEOM_OPT_MAX_CYCLES 400
   SCF_MAX_CYCLES 400
   METHOD   B3LYP
   BASIS   6-31G**
   PDB_PRINT 2
   SCF_CONVERGENCE 6
   THRESH 14
   SCF_PRINT 1
$end
$molecule
0 3
Cl -0.500264 -2.073488 -0.591906
Cl -0.527923 2.280515 0.186745
C -0.891130 0.558640 2.332491
C 0.055325 1.278757 1.518492
C -0.985822 -1.063925 -2.010703
H -1.295110 0.996363 3.243571
H -1.305925 -0.393984 2.004526
H 1.109335 1.042151 1.427022
H -1.030268 -0.024264 -1.689840
H -1.961590 -1.405685 -2.352892
H -0.238730 -1.195073 -2.792103
$end
$scan
stre 1 4 3.900000 3.901000 0.100000
$end
