
$comment
	potential surface scanner
$end

$rem
   JOBTYPE  PES_SCAN
   UNRESTRICTED TRUE
   SYM_IGNORE  TRUE
   GEOM_OPT_MAX_CYCLES 400
   SCF_MAX_CYCLES 400
   METHOD   B3LYP
   BASIS   6-31G**
   PDB_PRINT 2
   SCF_CONVERGENCE 6
   THRESH 14
   SCF_PRINT 1
$end
$molecule
0 1
Cl 1.141949 -1.601607 -0.324816
Cl 1.113116 1.477494 -0.317008
C -1.010176 0.013228 0.692392
C 0.496620 0.066976 0.569266
C -1.797419 0.009553 -0.616969
H -1.291134 0.882693 1.303196
H -1.241694 -0.878666 1.285258
H 1.023803 0.007241 1.517093
H -1.539269 -0.860993 -1.224790
H -2.869391 -0.025641 -0.403827
H -1.598505 0.909722 -1.204398
$end
$scan
stre 1 4 2.100000 2.101000 0.100000
$end
