
$comment
	potential surface scanner
$end

$rem
   JOBTYPE  PES_SCAN
   UNRESTRICTED TRUE
   SYM_IGNORE  TRUE
   GEOM_OPT_MAX_CYCLES 400
   SCF_MAX_CYCLES 400
   METHOD   B3LYP
   BASIS   6-31G**
   PDB_PRINT 2
   SCF_CONVERGENCE 6
   THRESH 14
   SCF_PRINT 1
$end
$molecule
0 3
Cl -0.311958 -1.863954 -0.531040
Cl -0.592551 2.246956 0.190519
C -0.924101 0.584822 2.387817
C 0.003374 1.136700 1.432793
C -0.926974 -1.017659 -2.004457
H -1.098561 1.069050 3.346730
H -1.548228 -0.272332 2.136504
H 0.954672 0.692991 1.163317
H -1.073179 0.032398 -1.756494
H -1.868541 -1.481217 -2.295272
H -0.186057 -1.127747 -2.795010
$end
$scan
stre 1 4 3.500000 3.501000 0.100000
$end
