
$comment
	potential surface scanner
$end

$rem
   JOBTYPE  PES_SCAN
   UNRESTRICTED TRUE
   SYM_IGNORE  TRUE
   GEOM_OPT_MAX_CYCLES 400
   SCF_MAX_CYCLES 400
   METHOD   B3LYP
   BASIS   6-31G**
   PDB_PRINT 2
   SCF_CONVERGENCE 6
   THRESH 14
   SCF_PRINT 1
$end
$molecule
0 1
Cl 0.987446 -2.550446 -0.808280
Cl 0.982004 1.816975 -0.111441
C -1.048762 0.176276 0.782450
C 0.380387 0.515843 0.766314
C -1.697938 -0.017451 -0.608171
H -1.569691 1.001992 1.302020
H -1.160486 -0.728477 1.384776
H 1.120277 -0.003258 1.367631
H -1.205057 -0.861172 -1.100762
H -2.761259 -0.229735 -0.474453
H -1.599025 0.879451 -1.224688
$end
$scan
stre 1 4 3.600000 3.601000 0.100000
$end
