
$comment
	potential surface scanner
$end

$rem
   JOBTYPE  PES_SCAN
   UNRESTRICTED TRUE
   SYM_IGNORE  TRUE
   GEOM_OPT_MAX_CYCLES 400
   SCF_MAX_CYCLES 400
   METHOD   B3LYP
   BASIS   6-31G**
   PDB_PRINT 2
   SCF_CONVERGENCE 6
   THRESH 14
   SCF_PRINT 1
$end
$molecule
0 1
Cl 0.910911 -2.747164 -1.278702
Cl 0.967658 2.065084 0.274772
C -1.087390 0.326966 0.845495
C 0.344719 0.606416 0.826749
C -1.624633 -0.138405 -0.560451
H -1.641836 1.226569 1.138329
H -1.269263 -0.478055 1.564703
H 1.092270 -0.137444 1.092551
H -1.103131 -1.050520 -0.861256
H -2.698696 -0.316377 -0.460129
H -1.462711 0.642930 -1.306661
$end
$scan
stre 1 4 4.100000 4.101000 0.100000
$end
