
$comment
	potential surface scanner
$end

$rem
   JOBTYPE  PES_SCAN
   UNRESTRICTED TRUE
   SYM_IGNORE  TRUE
   GEOM_OPT_MAX_CYCLES 400
   SCF_MAX_CYCLES 400
   METHOD   B3LYP
   BASIS   6-31G**
   PDB_PRINT 2
   SCF_CONVERGENCE 6
   THRESH 14
   SCF_PRINT 1
$end
$molecule
0 1
Cl 1.176259 -1.855029 -0.382772
Cl 1.101423 1.478966 -0.340609
C -1.026954 0.047190 0.707205
C 0.455079 0.202738 0.619969
C -1.791474 0.028300 -0.616396
H -1.368029 0.890562 1.332689
H -1.211667 -0.865209 1.282128
H 1.053196 0.014232 1.503869
H -1.451068 -0.808369 -1.230582
H -2.860755 -0.088296 -0.421739
H -1.648112 0.954915 -1.178368
$end
$scan
stre 1 4 2.500000 2.501000 0.100000
$end
