
$comment
	potential surface scanner
$end

$rem
   JOBTYPE  PES_SCAN
   UNRESTRICTED TRUE
   SYM_IGNORE  TRUE
   GEOM_OPT_MAX_CYCLES 400
   SCF_MAX_CYCLES 400
   METHOD   B3LYP
   BASIS   6-31G**
   PDB_PRINT 2
   SCF_CONVERGENCE 6
   THRESH 14
   SCF_PRINT 1
$end
$molecule
0 1
Cl 0.838898 -2.685437 -1.060330
Cl 0.944481 1.973664 0.061025
C -1.055659 0.238286 0.816880
C 0.365617 0.586809 0.812746
C -1.642647 -0.080689 -0.594305
H -1.618767 1.092403 1.227521
H -1.186690 -0.627211 1.471045
H 1.129934 -0.023165 1.285481
H -1.115288 -0.953670 -0.993180
H -2.709116 -0.290562 -0.481305
H -1.522864 0.769572 -1.270181
$end
$scan
stre 1 4 3.900000 3.901000 0.100000
$end
