
$comment
	potential surface scanner
$end

$rem
   JOBTYPE  PES_SCAN
   UNRESTRICTED TRUE
   SYM_IGNORE  TRUE
   GEOM_OPT_MAX_CYCLES 400
   SCF_MAX_CYCLES 400
   METHOD   B3LYP
   BASIS   6-31G**
   PDB_PRINT 2
   SCF_CONVERGENCE 6
   THRESH 14
   SCF_PRINT 1
$end
$molecule
0 1
Cl 0.938111 -2.674387 -1.239161
Cl 0.982145 2.037917 0.258841
C -1.088548 0.323603 0.842639
C 0.347061 0.586690 0.816571
C -1.635088 -0.138390 -0.560213
H -1.631256 1.229516 1.137625
H -1.274926 -0.478797 1.563636
H 1.087622 -0.164989 1.080822
H -1.117552 -1.052709 -0.861501
H -2.709851 -0.309688 -0.456355
H -1.469819 0.641234 -1.307505
$end
$scan
stre 1 4 4.000000 4.001000 0.100000
$end
