
$comment
	potential surface scanner
$end

$rem
   JOBTYPE  PES_SCAN
   UNRESTRICTED TRUE
   SYM_IGNORE  TRUE
   GEOM_OPT_MAX_CYCLES 400
   SCF_MAX_CYCLES 400
   METHOD   B3LYP
   BASIS   6-31G**
   PDB_PRINT 2
   SCF_CONVERGENCE 6
   THRESH 14
   SCF_PRINT 1
$end
$molecule
0 1
Cl 1.114406 -1.481095 -0.295526
Cl 1.116116 1.488483 -0.297151
C -1.000454 -0.000855 0.685764
C 0.518136 -0.004058 0.542820
C -1.798175 -0.000547 -0.617414
H -1.252621 0.880525 1.287635
H -1.255255 -0.881074 1.288552
H 1.008452 -0.000168 1.514506
H -1.578326 -0.886935 -1.218277
H -2.869289 0.001307 -0.396415
H -1.575090 0.884417 -1.219095
$end
$scan
stre 1 4 1.900000 1.901000 0.100000
$end
