
$comment
	potential surface scanner
$end

$rem
   JOBTYPE  PES_SCAN
   UNRESTRICTED TRUE
   SYM_IGNORE  TRUE
   GEOM_OPT_MAX_CYCLES 400
   SCF_MAX_CYCLES 400
   METHOD   B3LYP
   BASIS   6-31G**
   PDB_PRINT 2
   SCF_CONVERGENCE 6
   THRESH 14
   SCF_PRINT 1
$end
$molecule
0 1
Cl 0.082965 -2.713415 -1.960824
Cl -0.987214 1.636016 0.291631
C -0.314619 1.694091 2.924176
C -0.295788 1.019135 1.782786
C -1.208389 -1.563596 -2.484833
H -0.761348 2.677872 3.013551
H 0.133129 1.252414 3.808645
H 0.141629 0.036001 1.656043
H -2.173204 -2.053642 -2.361080
H -1.039086 -1.313867 -3.531430
H -1.150175 -0.671006 -1.863266
$end
$scan
stre 1 4 5.400000 5.401000 0.100000
$end
