
$comment
	potential surface scanner
$end

$rem
   JOBTYPE  PES_SCAN
   UNRESTRICTED TRUE
   SYM_IGNORE  TRUE
   GEOM_OPT_MAX_CYCLES 400
   SCF_MAX_CYCLES 400
   METHOD   B3LYP
   BASIS   6-31G**
   PDB_PRINT 2
   SCF_CONVERGENCE 6
   THRESH 14
   SCF_PRINT 1
$end
$molecule
0 1
Cl 1.154974 -1.664062 -0.336944
Cl 1.110448 1.474120 -0.326438
C -1.014733 0.020427 0.695579
C 0.485725 0.101519 0.582201
C -1.796814 0.014986 -0.616884
H -1.310093 0.883379 1.311186
H -1.234418 -0.877262 1.283251
H 1.031499 0.010804 1.515985
H -1.519113 -0.846943 -1.228064
H -2.868630 -0.039716 -0.407626
H -1.610946 0.922747 -1.196850
$end
$scan
stre 1 4 2.200000 2.201000 0.100000
$end
