
$comment
	potential surface scanner
$end

$rem
   JOBTYPE  PES_SCAN
   UNRESTRICTED TRUE
   SYM_IGNORE  TRUE
   GEOM_OPT_MAX_CYCLES 400
   SCF_MAX_CYCLES 400
   METHOD   B3LYP
   BASIS   6-31G**
   PDB_PRINT 2
   SCF_CONVERGENCE 6
   THRESH 14
   SCF_PRINT 1
$end
$molecule
0 1
Cl 1.078017 -2.413730 -0.724787
Cl 1.018052 1.718442 -0.181825
C -1.050742 0.154761 0.768122
C 0.388470 0.461000 0.741654
C -1.726278 -0.001939 -0.608577
H -1.535014 0.986780 1.314510
H -1.175567 -0.751301 1.366040
H 1.105063 -0.012575 1.404610
H -1.259265 -0.844050 -1.126261
H -2.791089 -0.199409 -0.464001
H -1.623749 0.902021 -1.214090
$end
$scan
stre 1 4 3.400000 3.401000 0.100000
$end
