
$comment
	potential surface scanner
$end

$rem
   JOBTYPE  PES_SCAN
   UNRESTRICTED TRUE
   SYM_IGNORE  TRUE
   GEOM_OPT_MAX_CYCLES 400
   SCF_MAX_CYCLES 400
   METHOD   B3LYP
   BASIS   6-31G**
   PDB_PRINT 2
   SCF_CONVERGENCE 6
   THRESH 14
   SCF_PRINT 1
$end
$molecule
0 3
Cl -1.367698 -2.774065 -0.983160
Cl 0.085430 2.432489 0.135569
C -0.559546 0.444194 1.958874
C 0.205471 1.639164 1.701716
C -1.237698 -1.207890 -1.875599
H -1.604072 0.492228 2.267428
H -0.150320 -0.545084 1.759369
H 0.695315 2.251402 2.449870
H -1.013043 -0.418317 -1.159517
H -2.188752 -1.016664 -2.370606
H -0.437185 -1.297455 -2.608538
$end
$scan
stre 1 4 5.400000 5.401000 0.100000
$end
