
$comment
	potential surface scanner
$end

$rem
   JOBTYPE  PES_SCAN
   UNRESTRICTED TRUE
   SYM_IGNORE  TRUE
   GEOM_OPT_MAX_CYCLES 400
   SCF_MAX_CYCLES 400
   METHOD   B3LYP
   BASIS   6-31G**
   PDB_PRINT 2
   SCF_CONVERGENCE 6
   THRESH 14
   SCF_PRINT 1
$end
$molecule
0 1
Cl 0.148623 -2.781354 -1.711258
Cl 0.972953 1.934972 -0.063360
C -0.984381 0.207029 0.825908
C 0.327316 0.803897 1.002418
C -1.468111 -0.200577 -0.580469
H -1.690814 1.003233 1.150947
H -1.091978 -0.607372 1.548429
H 0.961422 0.586477 1.856155
H -0.906995 -1.111697 -0.894762
H -2.536621 -0.423531 -0.540910
H -1.303517 0.588925 -1.317699
$end
$scan
stre 1 4 4.600000 4.601000 0.100000
$end
