
$comment
	potential surface scanner
$end

$rem
   JOBTYPE  PES_SCAN
   UNRESTRICTED TRUE
   SYM_IGNORE  TRUE
   GEOM_OPT_MAX_CYCLES 400
   SCF_MAX_CYCLES 400
   METHOD   B3LYP
   BASIS   6-31G**
   PDB_PRINT 2
   SCF_CONVERGENCE 6
   THRESH 14
   SCF_PRINT 1
$end
$molecule
0 3
Cl -0.433586 -1.404144 -0.038809
Cl -0.948435 2.345657 0.082991
C -0.911948 0.342598 2.116948
C -0.288105 0.385248 0.842617
C -0.807367 -0.815411 -1.726403
H -0.378896 0.598308 3.029951
H -1.975485 0.137109 2.199233
H 0.786161 0.551263 0.805737
H -1.087505 0.233058 -1.619239
H -1.622670 -1.432819 -2.097496
H 0.095731 -0.940861 -2.320125
$end
$scan
stre 1 4 1.900000 1.901000 0.100000
$end
