
$comment
	potential surface scanner
$end

$rem
   JOBTYPE  PES_SCAN
   UNRESTRICTED TRUE
   SYM_IGNORE  TRUE
   GEOM_OPT_MAX_CYCLES 400
   SCF_MAX_CYCLES 400
   METHOD   B3LYP
   BASIS   6-31G**
   PDB_PRINT 2
   SCF_CONVERGENCE 6
   THRESH 14
   SCF_PRINT 1
$end
$molecule
0 1
Cl -0.120268 -2.875051 -1.906311
Cl 0.930022 2.031898 -0.008480
C -0.962807 0.216251 0.841739
C 0.308843 0.880218 1.052374
C -1.389694 -0.242060 -0.573461
H -1.718975 0.985708 1.113434
H -1.063027 -0.584090 1.580728
H 0.934182 0.693932 1.919723
H -0.825435 -1.161893 -0.855133
H -2.456808 -0.473590 -0.563061
H -1.208135 0.528677 -1.326154
$end
$scan
stre 1 4 4.900000 4.901000 0.100000
$end
