
$comment
	potential surface scanner
$end

$rem
   JOBTYPE  PES_SCAN
   UNRESTRICTED TRUE
   SYM_IGNORE  TRUE
   GEOM_OPT_MAX_CYCLES 400
   SCF_MAX_CYCLES 400
   METHOD   B3LYP
   BASIS   6-31G**
   PDB_PRINT 2
   SCF_CONVERGENCE 6
   THRESH 14
   SCF_PRINT 1
$end
$molecule
0 3
Cl -0.600975 -1.394131 -0.036399
Cl -0.988138 2.278287 0.157746
C -0.883839 0.341029 2.164000
C -0.364309 0.503430 0.831502
C -0.776600 -0.831629 -1.753217
H -0.324847 0.657717 3.041772
H -1.916672 0.037098 2.310641
H 0.714586 0.601773 0.729973
H -0.944166 0.244650 -1.714731
H -1.630024 -1.357491 -2.176431
H 0.142878 -1.080726 -2.279451
$end
$scan
stre 1 4 2.000000 2.001000 0.100000
$end
