
$comment
	potential surface scanner
$end

$rem
   JOBTYPE  PES_SCAN
   UNRESTRICTED TRUE
   SYM_IGNORE  TRUE
   GEOM_OPT_MAX_CYCLES 400
   SCF_MAX_CYCLES 400
   METHOD   B3LYP
   BASIS   6-31G**
   PDB_PRINT 2
   SCF_CONVERGENCE 6
   THRESH 14
   SCF_PRINT 1
$end
$molecule
0 1
Cl 1.164870 -1.727423 -0.349783
Cl 1.107766 1.472846 -0.333950
C -1.019012 0.028436 0.699028
C 0.475231 0.135905 0.594890
C -1.795698 0.020119 -0.616792
H -1.329434 0.884503 1.319122
H -1.226596 -0.874912 1.281595
H 1.039116 0.013564 1.513403
H -1.497639 -0.833079 -1.230415
H -2.867014 -0.054971 -0.411911
H -1.623691 0.935012 -1.189794
$end
$scan
stre 1 4 2.300000 2.301000 0.100000
$end
