
$comment
	potential surface scanner
$end

$rem
   JOBTYPE  PES_SCAN
   UNRESTRICTED TRUE
   SYM_IGNORE  TRUE
   GEOM_OPT_MAX_CYCLES 400
   SCF_MAX_CYCLES 400
   METHOD   B3LYP
   BASIS   6-31G**
   PDB_PRINT 2
   SCF_CONVERGENCE 6
   THRESH 14
   SCF_PRINT 1
$end
$molecule
0 1
Cl 0.948427 -2.622798 -0.845342
Cl 0.962915 1.872708 -0.062165
C -1.048225 0.189603 0.790168
C 0.376740 0.539821 0.776697
C -1.683930 -0.026300 -0.608171
H -1.583309 1.018349 1.288930
H -1.158938 -0.710485 1.399114
H 1.129347 -0.010761 1.333075
H -1.175518 -0.866942 -1.090542
H -2.744995 -0.252105 -0.478040
H -1.594617 0.868907 -1.228327
$end
$scan
stre 1 4 3.700000 3.701000 0.100000
$end
