
$comment
	potential surface scanner
$end

$rem
   JOBTYPE  PES_SCAN
   UNRESTRICTED TRUE
   SYM_IGNORE  TRUE
   GEOM_OPT_MAX_CYCLES 400
   SCF_MAX_CYCLES 400
   METHOD   B3LYP
   BASIS   6-31G**
   PDB_PRINT 2
   SCF_CONVERGENCE 6
   THRESH 14
   SCF_PRINT 1
$end
$molecule
0 3
Cl -0.385325 -1.750925 -0.452090
Cl -0.643198 2.206387 0.174506
C -0.909535 0.568446 2.399789
C -0.021310 1.083896 1.389455
C -0.914320 -0.995641 -2.006178
H -1.024937 1.072393 3.357857
H -1.566467 -0.276675 2.196005
H 0.932755 0.654446 1.110923
H -1.087950 0.063612 -1.823857
H -1.829416 -1.488855 -2.330749
H -0.122402 -1.137077 -2.740254
$end
$scan
stre 1 4 3.300000 3.301000 0.100000
$end
