
$comment
	potential surface scanner
$end

$rem
   JOBTYPE  PES_SCAN
   UNRESTRICTED TRUE
   SYM_IGNORE  TRUE
   GEOM_OPT_MAX_CYCLES 400
   SCF_MAX_CYCLES 400
   METHOD   B3LYP
   BASIS   6-31G**
   PDB_PRINT 2
   SCF_CONVERGENCE 6
   THRESH 14
   SCF_PRINT 1
$end
$molecule
0 3
Cl -0.508430 -1.590074 -0.273744
Cl -0.791550 2.240595 0.198089
C -0.901025 0.463392 2.318303
C -0.199130 0.824178 1.110352
C -0.851864 -0.933025 -1.920380
H -0.749533 1.007738 3.250689
H -1.689726 -0.285176 2.300111
H 0.869644 0.700366 0.977848
H -0.922604 0.150826 -1.839573
H -1.793138 -1.357183 -2.266452
H -0.034751 -1.221632 -2.579837
$end
$scan
stre 1 4 2.700000 2.701000 0.100000
$end
