
$comment
	potential surface scanner
$end

$rem
   JOBTYPE  PES_SCAN
   UNRESTRICTED TRUE
   SYM_IGNORE  TRUE
   GEOM_OPT_MAX_CYCLES 400
   SCF_MAX_CYCLES 400
   METHOD   B3LYP
   BASIS   6-31G**
   PDB_PRINT 2
   SCF_CONVERGENCE 6
   THRESH 14
   SCF_PRINT 1
$end
$molecule
0 3
Cl -0.379712 -1.964081 -0.559236
Cl -0.544815 2.276190 0.194707
C -0.913919 0.568457 2.349944
C 0.038737 1.213826 1.481795
C -0.960813 -1.041654 -2.001043
H -1.218667 1.026279 3.289062
H -1.432917 -0.337719 2.038855
H 1.049203 0.865692 1.299665
H -1.057768 0.005382 -1.718198
H -1.923405 -1.452243 -2.302283
H -0.228028 -1.160120 -2.797862
$end
$scan
stre 1 4 3.700000 3.701000 0.100000
$end
