
$comment
	potential surface scanner
$end

$rem
   JOBTYPE  PES_SCAN
   UNRESTRICTED TRUE
   SYM_IGNORE  TRUE
   GEOM_OPT_MAX_CYCLES 400
   SCF_MAX_CYCLES 400
   METHOD   B3LYP
   BASIS   6-31G**
   PDB_PRINT 2
   SCF_CONVERGENCE 6
   THRESH 14
   SCF_PRINT 1
$end
$molecule
0 3
Cl -0.329166 -1.913177 -0.559973
Cl -0.584059 2.257120 0.200165
C -0.919826 0.590545 2.391771
C 0.015430 1.168078 1.459216
C -0.935858 -1.031225 -2.016341
H -1.131447 1.069740 3.345630
H -1.515472 -0.281866 2.124103
H 0.977685 0.739086 1.203472
H -1.066730 0.016311 -1.749359
H -1.884481 -1.476266 -2.313043
H -0.198179 -1.138338 -2.810235
$end
$scan
stre 1 4 3.600000 3.601000 0.100000
$end
