
$comment
	potential surface scanner
$end

$rem
   JOBTYPE  PES_SCAN
   UNRESTRICTED TRUE
   SYM_IGNORE  TRUE
   GEOM_OPT_MAX_CYCLES 400
   SCF_MAX_CYCLES 400
   METHOD   B3LYP
   BASIS   6-31G**
   PDB_PRINT 2
   SCF_CONVERGENCE 6
   THRESH 14
   SCF_PRINT 1
$end
$molecule
0 3
Cl -0.660713 -1.400619 -0.057628
Cl -1.000082 2.248640 0.191226
C -0.869261 0.347629 2.193644
C -0.369109 0.579287 0.856122
C -0.772591 -0.845865 -1.776287
H -0.359601 0.742146 3.070595
H -1.862328 -0.069319 2.339090
H 0.708898 0.631227 0.721985
H -0.854807 0.240721 -1.759742
H -1.660456 -1.301990 -2.209937
H 0.127944 -1.171849 -2.293663
$end
$scan
stre 1 4 2.100000 2.101000 0.100000
$end
