
$comment
	potential surface scanner
$end

$rem
   JOBTYPE  PES_SCAN
   UNRESTRICTED TRUE
   SYM_IGNORE  TRUE
   GEOM_OPT_MAX_CYCLES 400
   SCF_MAX_CYCLES 400
   METHOD   B3LYP
   BASIS   6-31G**
   PDB_PRINT 2
   SCF_CONVERGENCE 6
   THRESH 14
   SCF_PRINT 1
$end
$molecule
0 1
Cl -0.026555 -2.847537 -1.833531
Cl 0.953037 1.986703 -0.037578
C -0.965687 0.206265 0.833172
C 0.314292 0.858601 1.036724
C -1.418504 -0.223402 -0.577576
H -1.708570 0.977011 1.138862
H -1.058701 -0.604716 1.562008
H 0.930433 0.681522 1.912610
H -0.865906 -1.146273 -0.878831
H -2.488264 -0.442677 -0.557240
H -1.237677 0.554503 -1.323222
$end
$scan
stre 1 4 4.800000 4.801000 0.100000
$end
