
$comment
	potential surface scanner
$end

$rem
   JOBTYPE  PES_SCAN
   UNRESTRICTED TRUE
   SYM_IGNORE  TRUE
   GEOM_OPT_MAX_CYCLES 400
   SCF_MAX_CYCLES 400
   METHOD   B3LYP
   BASIS   6-31G**
   PDB_PRINT 2
   SCF_CONVERGENCE 6
   THRESH 14
   SCF_PRINT 1
$end
$molecule
0 3
Cl -0.405571 -1.626834 -0.314884
Cl -0.694895 2.262609 0.196072
C -0.922759 0.471729 2.298779
C -0.144674 0.862993 1.148910
C -0.881129 -0.948215 -1.919361
H -0.854988 1.009847 3.244499
H -1.684052 -0.300268 2.215368
H 0.928090 0.729991 1.068335
H -0.990224 0.129849 -1.809594
H -1.824532 -1.404047 -2.216191
H -0.097372 -1.187650 -2.636528
$end
$scan
stre 1 4 2.800000 2.801000 0.100000
$end
