
$comment
	potential surface scanner
$end

$rem
   JOBTYPE  PES_SCAN
   UNRESTRICTED TRUE
   SYM_IGNORE  TRUE
   GEOM_OPT_MAX_CYCLES 400
   SCF_MAX_CYCLES 400
   METHOD   B3LYP
   BASIS   6-31G**
   PDB_PRINT 2
   SCF_CONVERGENCE 6
   THRESH 14
   SCF_PRINT 1
$end
$molecule
0 1
Cl 0.860378 -2.891706 -1.357949
Cl 0.938666 2.118277 0.307193
C -1.086221 0.335396 0.851790
C 0.339187 0.645069 0.846497
C -1.604396 -0.138449 -0.560113
H -1.662852 1.222056 1.141091
H -1.258301 -0.475166 1.567268
H 1.099641 -0.085243 1.112020
H -1.075228 -1.046304 -0.859688
H -2.677004 -0.328607 -0.467517
H -1.445970 0.644678 -1.305193
$end
$scan
stre 1 4 4.300000 4.301000 0.100000
$end
