
$comment
	potential surface scanner
$end

$rem
   JOBTYPE  PES_SCAN
   UNRESTRICTED TRUE
   SYM_IGNORE  TRUE
   GEOM_OPT_MAX_CYCLES 400
   SCF_MAX_CYCLES 400
   METHOD   B3LYP
   BASIS   6-31G**
   PDB_PRINT 2
   SCF_CONVERGENCE 6
   THRESH 14
   SCF_PRINT 1
$end
$molecule
0 1
Cl 0.093511 -2.679189 -1.895293
Cl -0.998636 1.666054 0.267902
C -0.315001 1.665816 2.898530
C -0.307961 1.013089 1.744199
C -1.201232 -1.547505 -2.449892
H -0.750610 2.652435 3.009264
H 0.131645 1.202104 3.772224
H 0.118576 0.028112 1.596391
H -2.163863 -2.041146 -2.323422
H -1.026193 -1.316539 -3.499844
H -1.152336 -0.643228 -1.844661
$end
$scan
stre 1 4 5.300000 5.301000 0.100000
$end
