
$comment
	potential surface scanner
$end

$rem
   JOBTYPE  PES_SCAN
   UNRESTRICTED TRUE
   SYM_IGNORE  TRUE
   GEOM_OPT_MAX_CYCLES 400
   SCF_MAX_CYCLES 400
   METHOD   B3LYP
   BASIS   6-31G**
   PDB_PRINT 2
   SCF_CONVERGENCE 6
   THRESH 14
   SCF_PRINT 1
$end
$molecule
0 1
C -1.793795 1.288597 0.142549
C -1.280337 0.000000 -0.425603
Se 1.277253 0.000000 0.042084
H 1.019309 0.000000 1.498258
C -1.793795 -1.288597 0.142549
H -1.270538 2.153472 -0.267271
H -2.861917 1.382513 -0.115098
H -1.720431 1.313092 1.233191
H -1.144666 0.000000 -1.504982
H -2.861917 -1.382513 -0.115098
H -1.270538 -2.153472 -0.267271
H -1.720431 -1.313092 1.233191
$end
$scan
stre 2 3 2.700000 2.701000 0.100000
$end
