
$comment
	potential surface scanner
$end

$rem
   JOBTYPE  PES_SCAN
   UNRESTRICTED TRUE
   SYM_IGNORE  TRUE
   GEOM_OPT_MAX_CYCLES 400
   SCF_MAX_CYCLES 400
   METHOD   B3LYP
   BASIS   6-31G**
   PDB_PRINT 2
   SCF_CONVERGENCE 6
   THRESH 14
   SCF_PRINT 1
$end
$molecule
0 3
C -2.016007 1.300383 0.133242
C -1.381964 0.000000 -0.231977
Se 2.312366 0.000000 -0.027205
H 1.492499 0.000000 1.206297
C -2.016007 -1.300383 0.133242
H -1.328756 2.142497 0.004475
H -2.905867 1.517368 -0.484675
H -2.364126 1.298805 1.174765
H -0.615176 0.000000 -1.006229
H -2.905867 -1.517368 -0.484675
H -1.328756 -2.142497 0.004475
H -2.364126 -1.298805 1.174765
$end
$scan
stre 2 3 3.600000 3.601000 0.100000
$end
