
$comment
	potential surface scanner
$end

$rem
   JOBTYPE  PES_SCAN
   UNRESTRICTED TRUE
   SYM_IGNORE  TRUE
   GEOM_OPT_MAX_CYCLES 400
   SCF_MAX_CYCLES 400
   METHOD   B3LYP
   BASIS   6-31G**
   PDB_PRINT 2
   SCF_CONVERGENCE 6
   THRESH 14
   SCF_PRINT 1
$end
$molecule
0 3
C -1.818118 1.292818 0.153194
C -1.147900 -0.000003 -0.178617
Se 1.251594 -0.000004 -0.129334
H 0.723114 0.000026 1.243104
C -1.818123 -1.292822 0.153191
H -1.136758 2.142342 0.037432
H -2.694314 1.489497 -0.489535
H -2.191531 1.282913 1.185013
H -0.567127 -0.000003 -1.110843
H -2.694321 -1.489496 -0.489538
H -1.136767 -2.142348 0.037427
H -2.191536 -1.282918 1.185010
$end
$scan
stre 2 3 2.300000 2.301000 0.100000
$end
