
$comment
	potential surface scanner
$end

$rem
   JOBTYPE  PES_SCAN
   UNRESTRICTED TRUE
   SYM_IGNORE  TRUE
   GEOM_OPT_MAX_CYCLES 400
   SCF_MAX_CYCLES 400
   METHOD   B3LYP
   BASIS   6-31G**
   PDB_PRINT 2
   SCF_CONVERGENCE 6
   THRESH 14
   SCF_PRINT 1
$end
$molecule
0 3
C -2.412085 1.299459 0.094940
C -1.706182 0.000000 -0.103215
Se 3.793801 0.000000 -0.116773
H 3.748191 0.000000 1.363095
C -2.412085 -1.299459 0.094940
H -1.716011 2.143710 0.125125
H -3.134151 1.509468 -0.714580
H -2.993768 1.305641 1.027132
H -0.745578 0.000000 -0.611844
H -3.134151 -1.509468 -0.714580
H -1.716011 -2.143710 0.125125
H -2.993768 -1.305641 1.027132
$end
$scan
stre 2 3 5.400000 5.401000 0.100000
$end
