
$comment
	potential surface scanner
$end

$rem
   JOBTYPE  PES_SCAN
   UNRESTRICTED TRUE
   SYM_IGNORE  TRUE
   GEOM_OPT_MAX_CYCLES 400
   SCF_MAX_CYCLES 400
   METHOD   B3LYP
   BASIS   6-31G**
   PDB_PRINT 2
   SCF_CONVERGENCE 6
   THRESH 14
   SCF_PRINT 1
$end
$molecule
0 3
C -2.196268 1.298581 0.122566
C -1.504031 0.000000 -0.124943
Se 2.995887 0.000000 -0.152082
H 2.440796 0.000000 1.215470
C -2.196268 -1.298581 0.122566
H -1.502474 2.144914 0.097022
H -2.977754 1.504037 -0.631067
H -2.706624 1.306536 1.095633
H -0.588205 0.000000 -0.710255
H -2.977754 -1.504037 -0.631067
H -1.502474 -2.144914 0.097022
H -2.706624 -1.306536 1.095633
$end
$scan
stre 2 3 4.400000 4.401000 0.100000
$end
