
$comment
	potential surface scanner
$end

$rem
   JOBTYPE  PES_SCAN
   UNRESTRICTED TRUE
   SYM_IGNORE  TRUE
   GEOM_OPT_MAX_CYCLES 400
   SCF_MAX_CYCLES 400
   METHOD   B3LYP
   BASIS   6-31G**
   PDB_PRINT 2
   SCF_CONVERGENCE 6
   THRESH 14
   SCF_PRINT 1
$end
$molecule
0 3
C -1.876244 1.301693 0.161835
C -1.211456 -0.000000 -0.138239
Se 1.487471 0.000000 -0.214342
H 0.950296 0.000000 1.152011
C -1.876244 -1.301693 0.161835
H -1.172066 2.138121 0.101495
H -2.701037 1.523267 -0.538169
H -2.318846 1.293491 1.166011
H -0.511709 -0.000000 -0.985271
H -2.701038 -1.523267 -0.538169
H -1.172066 -2.138121 0.101495
H -2.318846 -1.293491 1.166011
$end
$scan
stre 2 3 2.600000 2.601000 0.100000
$end
