
$comment
	potential surface scanner
$end

$rem
   JOBTYPE  PES_SCAN
   UNRESTRICTED TRUE
   SYM_IGNORE  TRUE
   GEOM_OPT_MAX_CYCLES 400
   SCF_MAX_CYCLES 400
   METHOD   B3LYP
   BASIS   6-31G**
   PDB_PRINT 2
   SCF_CONVERGENCE 6
   THRESH 14
   SCF_PRINT 1
$end
$molecule
0 3
C -2.270067 1.299372 0.111725
C -1.580267 0.000000 -0.137636
Se 3.219732 0.000000 -0.140800
H 2.954219 0.000000 1.316086
C -2.270067 -1.299372 0.111725
H -1.571538 2.142256 0.104066
H -3.039523 1.516601 -0.651053
H -2.793659 1.300570 1.077576
H -0.665904 0.000000 -0.725782
H -3.039523 -1.516601 -0.651053
H -1.571538 -2.142256 0.104066
H -2.793659 -1.300570 1.077576
$end
$scan
stre 2 3 4.700000 4.701000 0.100000
$end
