
$comment
	potential surface scanner
$end

$rem
   JOBTYPE  PES_SCAN
   UNRESTRICTED TRUE
   SYM_IGNORE  TRUE
   GEOM_OPT_MAX_CYCLES 400
   SCF_MAX_CYCLES 400
   METHOD   B3LYP
   BASIS   6-31G**
   PDB_PRINT 2
   SCF_CONVERGENCE 6
   THRESH 14
   SCF_PRINT 1
$end
$molecule
0 1
C -1.751087 1.278663 0.150684
C -1.140459 0.000000 -0.392252
Se 1.026929 0.000000 -0.014857
H 0.850435 0.000000 1.451478
C -1.751087 -1.278663 0.150684
H -1.268314 2.167646 -0.259978
H -2.817287 1.313236 -0.114706
H -1.683069 1.323512 1.242309
H -1.119194 0.000000 -1.484488
H -2.817287 -1.313236 -0.114706
H -1.268314 -2.167646 -0.259978
H -1.683069 -1.323512 1.242309
$end
$scan
stre 2 3 2.300000 2.301000 0.100000
$end
