
$comment
	potential surface scanner
$end

$rem
   JOBTYPE  PES_SCAN
   UNRESTRICTED TRUE
   SYM_IGNORE  TRUE
   GEOM_OPT_MAX_CYCLES 400
   SCF_MAX_CYCLES 400
   METHOD   B3LYP
   BASIS   6-31G**
   PDB_PRINT 2
   SCF_CONVERGENCE 6
   THRESH 14
   SCF_PRINT 1
$end
$molecule
0 3
C -2.348135 1.299160 0.104335
C -1.646442 0.000000 -0.110947
Se 3.553513 0.000000 -0.132596
H 3.374840 0.000000 1.336801
C -2.348135 -1.299160 0.104335
H -1.651796 2.143697 0.118710
H -3.088262 1.509276 -0.688784
H -2.908314 1.304623 1.049429
H -0.710691 0.000000 -0.664143
H -3.088262 -1.509276 -0.688784
H -1.651796 -2.143697 0.118710
H -2.908314 -1.304623 1.049429
$end
$scan
stre 2 3 5.100000 5.101000 0.100000
$end
