
$comment
	potential surface scanner
$end

$rem
   JOBTYPE  PES_SCAN
   UNRESTRICTED TRUE
   SYM_IGNORE  TRUE
   GEOM_OPT_MAX_CYCLES 400
   SCF_MAX_CYCLES 400
   METHOD   B3LYP
   BASIS   6-31G**
   PDB_PRINT 2
   SCF_CONVERGENCE 6
   THRESH 14
   SCF_PRINT 1
$end
$molecule
0 3
C -1.837167 1.296529 0.154385
C -1.171449 -0.000000 -0.168638
Se 1.328479 -0.000000 -0.149638
H 0.795206 0.000002 1.218717
C -1.837168 -1.296529 0.154385
H -1.147534 2.140907 0.051352
H -2.701393 1.501492 -0.501789
H -2.226761 1.289002 1.180338
H -0.548311 -0.000000 -1.072512
H -2.701394 -1.501492 -0.501789
H -1.147534 -2.140907 0.051353
H -2.226761 -1.289002 1.180338
$end
$scan
stre 2 3 2.400000 2.401000 0.100000
$end
