
$comment
	potential surface scanner
$end

$rem
   JOBTYPE  PES_SCAN
   UNRESTRICTED TRUE
   SYM_IGNORE  TRUE
   GEOM_OPT_MAX_CYCLES 400
   SCF_MAX_CYCLES 400
   METHOD   B3LYP
   BASIS   6-31G**
   PDB_PRINT 2
   SCF_CONVERGENCE 6
   THRESH 14
   SCF_PRINT 1
$end
$molecule
0 3
C -2.176721 1.298565 0.121884
C -1.491861 0.000000 -0.145361
Se 2.908124 0.000000 -0.133586
H 2.352664 0.000000 1.233730
C -2.176721 -1.298565 0.121884
H -1.483666 2.144728 0.077115
H -2.979139 1.504682 -0.609269
H -2.659552 1.306326 1.108918
H -0.592561 0.000000 -0.755582
H -2.979139 -1.504682 -0.609269
H -1.483666 -2.144728 0.077115
H -2.659552 -1.306326 1.108918
$end
$scan
stre 2 3 4.300000 4.301000 0.100000
$end
