
$comment
	potential surface scanner
$end

$rem
   JOBTYPE  PES_SCAN
   UNRESTRICTED TRUE
   SYM_IGNORE  TRUE
   GEOM_OPT_MAX_CYCLES 400
   SCF_MAX_CYCLES 400
   METHOD   B3LYP
   BASIS   6-31G**
   PDB_PRINT 2
   SCF_CONVERGENCE 6
   THRESH 14
   SCF_PRINT 1
$end
$molecule
0 1
C -1.782788 1.286401 0.144630
C -1.245422 0.000000 -0.417369
Se 1.214499 0.000000 0.028493
H 0.977056 0.000000 1.487701
C -1.782788 -1.286401 0.144630
H -1.271337 2.158018 -0.266397
H -2.851058 1.363549 -0.114436
H -1.710010 1.316777 1.235415
H -1.137550 0.000000 -1.500751
H -2.851058 -1.363549 -0.114436
H -1.271337 -2.158018 -0.266397
H -1.710010 -1.316777 1.235415
$end
$scan
stre 2 3 2.600000 2.601000 0.100000
$end
