
$comment
	potential surface scanner
$end

$rem
   JOBTYPE  PES_SCAN
   UNRESTRICTED TRUE
   SYM_IGNORE  TRUE
   GEOM_OPT_MAX_CYCLES 400
   SCF_MAX_CYCLES 400
   METHOD   B3LYP
   BASIS   6-31G**
   PDB_PRINT 2
   SCF_CONVERGENCE 6
   THRESH 14
   SCF_PRINT 1
$end
$molecule
0 1
C -1.741080 1.275884 0.152331
C -1.106486 0.000000 -0.384069
Se 0.963269 0.000000 -0.028943
H 0.808724 0.000000 1.439436
C -1.741080 -1.275884 0.152331
H -1.265450 2.169200 -0.257983
H -2.806326 1.299066 -0.114520
H -1.674032 1.324743 1.244240
H -1.113532 0.000000 -1.478060
H -2.806326 -1.299066 -0.114520
H -1.265450 -2.169200 -0.257983
H -1.674032 -1.324743 1.244240
$end
$scan
stre 2 3 2.200000 2.201000 0.100000
$end
