
$comment
	potential surface scanner
$end

$rem
   JOBTYPE  PES_SCAN
   UNRESTRICTED TRUE
   SYM_IGNORE  TRUE
   GEOM_OPT_MAX_CYCLES 400
   SCF_MAX_CYCLES 400
   METHOD   B3LYP
   BASIS   6-31G**
   PDB_PRINT 2
   SCF_CONVERGENCE 6
   THRESH 14
   SCF_PRINT 1
$end
$molecule
0 3
C -1.998292 1.300585 0.135577
C -1.365903 0.000000 -0.231924
Se 2.228615 0.000000 -0.033323
H 1.408554 0.000000 1.199525
C -1.998292 -1.300585 0.135577
H -1.310723 2.142156 0.004805
H -2.889886 1.518314 -0.479583
H -2.343191 1.298847 1.178138
H -0.608869 0.000000 -1.015650
H -2.889886 -1.518314 -0.479583
H -1.310723 -2.142156 0.004805
H -2.343191 -1.298847 1.178138
$end
$scan
stre 2 3 3.500000 3.501000 0.100000
$end
