
$comment
	potential surface scanner
$end

$rem
   JOBTYPE  PES_SCAN
   UNRESTRICTED TRUE
   SYM_IGNORE  TRUE
   GEOM_OPT_MAX_CYCLES 400
   SCF_MAX_CYCLES 400
   METHOD   B3LYP
   BASIS   6-31G**
   PDB_PRINT 2
   SCF_CONVERGENCE 6
   THRESH 14
   SCF_PRINT 1
$end
$molecule
0 3
C -1.922017 1.303434 0.163303
C -1.245316 0.000000 -0.097488
Se 1.648983 -0.000000 -0.279244
H 1.156143 0.000000 1.105082
C -1.922017 -1.303434 0.163303
H -1.219329 2.141678 0.121437
H -2.719268 1.513856 -0.571182
H -2.404097 1.306444 1.149524
H -0.452173 -0.000000 -0.858012
H -2.719268 -1.513856 -0.571182
H -1.219329 -2.141678 0.121437
H -2.404097 -1.306444 1.149524
$end
$scan
stre 2 3 2.800000 2.801000 0.100000
$end
