
$comment
	potential surface scanner
$end

$rem
   JOBTYPE  PES_SCAN
   UNRESTRICTED TRUE
   SYM_IGNORE  TRUE
   GEOM_OPT_MAX_CYCLES 400
   SCF_MAX_CYCLES 400
   METHOD   B3LYP
   BASIS   6-31G**
   PDB_PRINT 2
   SCF_CONVERGENCE 6
   THRESH 14
   SCF_PRINT 1
$end
$molecule
0 3
C -2.250076 1.299267 0.111415
C -1.567647 0.000000 -0.157858
Se 3.132227 0.000000 -0.123390
H 2.862441 0.000000 1.332700
C -2.250076 -1.299267 0.111415
H -1.552480 2.142418 0.081589
H -3.042868 1.515585 -0.627378
H -2.743788 1.301062 1.092908
H -0.670393 0.000000 -0.772023
H -3.042868 -1.515585 -0.627378
H -1.552480 -2.142418 0.081589
H -2.743788 -1.301062 1.092908
$end
$scan
stre 2 3 4.600000 4.601000 0.100000
$end
