
$comment
	potential surface scanner
$end

$rem
   JOBTYPE  PES_SCAN
   UNRESTRICTED TRUE
   SYM_IGNORE  TRUE
   GEOM_OPT_MAX_CYCLES 400
   SCF_MAX_CYCLES 400
   METHOD   B3LYP
   BASIS   6-31G**
   PDB_PRINT 2
   SCF_CONVERGENCE 6
   THRESH 14
   SCF_PRINT 1
$end
$molecule
0 3
C -1.932191 1.302871 0.158055
C -1.271410 0.000000 -0.144210
Se 1.828202 0.000000 -0.193276
H 1.097252 0.000000 1.090314
C -1.932191 -1.302871 0.158055
H -1.230588 2.140517 0.091343
H -2.760930 1.522458 -0.538283
H -2.370994 1.301169 1.164384
H -0.486424 0.000000 -0.907322
H -2.760930 -1.522458 -0.538283
H -1.230588 -2.140517 0.091343
H -2.370994 -1.301169 1.164384
$end
$scan
stre 2 3 3.000000 3.001000 0.100000
$end
