
$comment
	potential surface scanner
$end

$rem
   JOBTYPE  PES_SCAN
   UNRESTRICTED TRUE
   SYM_IGNORE  TRUE
   GEOM_OPT_MAX_CYCLES 400
   SCF_MAX_CYCLES 400
   METHOD   B3LYP
   BASIS   6-31G**
   PDB_PRINT 2
   SCF_CONVERGENCE 6
   THRESH 14
   SCF_PRINT 1
$end
$molecule
0 3
C -2.052825 1.300344 0.128870
C -1.413160 0.000000 -0.226348
Se 2.481520 0.000000 -0.022700
H 1.664117 0.000000 1.212911
C -2.052825 -1.300344 0.128870
H -1.365189 2.142977 0.006041
H -2.936290 1.514914 -0.498969
H -2.412704 1.301448 1.166619
H -0.620248 0.000000 -0.972484
H -2.936290 -1.514914 -0.498969
H -1.365189 -2.142977 0.006041
H -2.412704 -1.301448 1.166619
$end
$scan
stre 2 3 3.800000 3.801000 0.100000
$end
