
$comment
	potential surface scanner
$end

$rem
   JOBTYPE  PES_SCAN
   UNRESTRICTED TRUE
   SYM_IGNORE  TRUE
   GEOM_OPT_MAX_CYCLES 400
   SCF_MAX_CYCLES 400
   METHOD   B3LYP
   BASIS   6-31G**
   PDB_PRINT 2
   SCF_CONVERGENCE 6
   THRESH 14
   SCF_PRINT 1
$end
$molecule
0 3
C -1.697329 1.265229 0.084407
C -1.075337 -0.012008 -0.419094
Se 1.051418 -0.172131 0.441879
H 0.255317 0.276051 1.653740
C -1.734084 -1.287414 0.057755
H -1.223092 2.154446 -0.346381
H -2.773833 1.326447 -0.138687
H -1.609001 1.341314 1.181566
H -0.857166 -0.009872 -1.488882
H -2.789308 -1.345661 -0.253822
H -1.234943 -2.182533 -0.332395
H -1.734427 -1.353866 1.156419
$end
$scan
stre 2 3 2.200000 2.201000 0.100000
$end
