
$comment
	potential surface scanner
$end

$rem
   JOBTYPE  PES_SCAN
   UNRESTRICTED TRUE
   SYM_IGNORE  TRUE
   GEOM_OPT_MAX_CYCLES 400
   SCF_MAX_CYCLES 400
   METHOD   B3LYP
   BASIS   6-31G**
   PDB_PRINT 2
   SCF_CONVERGENCE 6
   THRESH 14
   SCF_PRINT 1
$end
$molecule
0 1
C -1.805660 1.290355 0.140586
C -1.313952 0.000000 -0.432919
Se 1.341732 0.000000 0.054257
H 1.067075 0.000000 1.507739
C -1.805660 -1.290355 0.140586
H -1.270406 2.148865 -0.266689
H -2.872874 1.400815 -0.117556
H -1.733935 1.308696 1.231271
H -1.150908 0.000000 -1.507802
H -2.872874 -1.400815 -0.117556
H -1.270406 -2.148865 -0.266689
H -1.733935 -1.308696 1.231271
$end
$scan
stre 2 3 2.800000 2.801000 0.100000
$end
