
$comment
	potential surface scanner
$end

$rem
   JOBTYPE  PES_SCAN
   UNRESTRICTED TRUE
   SYM_IGNORE  TRUE
   GEOM_OPT_MAX_CYCLES 400
   SCF_MAX_CYCLES 400
   METHOD   B3LYP
   BASIS   6-31G**
   PDB_PRINT 2
   SCF_CONVERGENCE 6
   THRESH 14
   SCF_PRINT 1
$end
$molecule
0 1
C -1.732085 1.273003 0.153908
C -1.072507 0.000000 -0.374529
Se 0.899913 0.000000 -0.043535
H 0.773413 0.000000 1.427596
C -1.732085 -1.273003 0.153908
H -1.263124 2.170199 -0.256373
H -2.796084 1.284726 -0.115274
H -1.666817 1.326248 1.246107
H -1.106399 0.000000 -1.469767
H -2.796084 -1.284726 -0.115274
H -1.263124 -2.170199 -0.256373
H -1.666817 -1.326248 1.246107
$end
$scan
stre 2 3 2.100000 2.101000 0.100000
$end
