
$comment
	potential surface scanner
$end

$rem
   JOBTYPE  PES_SCAN
   UNRESTRICTED TRUE
   SYM_IGNORE  TRUE
   GEOM_OPT_MAX_CYCLES 400
   SCF_MAX_CYCLES 400
   METHOD   B3LYP
   BASIS   6-31G**
   PDB_PRINT 2
   SCF_CONVERGENCE 6
   THRESH 14
   SCF_PRINT 1
$end
$molecule
0 3
C -1.834112 1.292602 0.134492
C -1.371877 0.000000 -0.442964
Se 1.479613 0.000000 0.085246
H 1.187219 0.000000 1.535539
C -1.834112 -1.292602 0.134492
H -1.276561 2.141148 -0.263420
H -2.896787 1.429731 -0.134709
H -1.776420 1.301213 1.226080
H -1.148995 0.000000 -1.506208
H -2.896787 -1.429731 -0.134709
H -1.276561 -2.141148 -0.263420
H -1.776420 -1.301213 1.226080
$end
$scan
stre 2 3 5.700000 5.701000 0.100000
$end
