
$comment
	potential surface scanner
$end

$rem
   JOBTYPE  PES_SCAN
   UNRESTRICTED TRUE
   SYM_IGNORE  TRUE
   GEOM_OPT_MAX_CYCLES 400
   SCF_MAX_CYCLES 400
   METHOD   B3LYP
   BASIS   6-31G**
   PDB_PRINT 2
   SCF_CONVERGENCE 6
   THRESH 14
   SCF_PRINT 1
$end
$molecule
0 3
C -2.309369 1.299286 0.104059
C -1.623439 0.000000 -0.155898
Se 3.376247 0.000000 -0.099819
H 3.203990 0.000000 1.370300
C -2.309369 -1.299286 0.104059
H -1.612589 2.143137 0.076602
H -3.097155 1.511736 -0.641142
H -2.810059 1.303639 1.082011
H -0.720248 0.000000 -0.761148
H -3.097155 -1.511736 -0.641142
H -1.612589 -2.143137 0.076602
H -2.810059 -1.303639 1.082011
$end
$scan
stre 2 3 4.900000 4.901000 0.100000
$end
