
$comment
	potential surface scanner
$end

$rem
   JOBTYPE  PES_SCAN
   UNRESTRICTED TRUE
   SYM_IGNORE  TRUE
   GEOM_OPT_MAX_CYCLES 400
   SCF_MAX_CYCLES 400
   METHOD   B3LYP
   BASIS   6-31G**
   PDB_PRINT 2
   SCF_CONVERGENCE 6
   THRESH 14
   SCF_PRINT 1
$end
$molecule
0 1
C -1.761508 1.281334 0.148815
C -1.174970 0.000000 -0.400471
Se 1.089977 0.000000 -0.000455
H 0.893301 0.000000 1.463679
C -1.761508 -1.281334 0.148815
H -1.270522 2.165314 -0.262189
H -2.828606 1.328515 -0.114733
H -1.692123 1.321780 1.240147
H -1.124592 0.000000 -1.490334
H -2.828606 -1.328515 -0.114733
H -1.270522 -2.165314 -0.262189
H -1.692123 -1.321780 1.240147
$end
$scan
stre 2 3 2.400000 2.401000 0.100000
$end
