
$comment
	potential surface scanner
$end

$rem
   JOBTYPE  PES_SCAN
   UNRESTRICTED TRUE
   SYM_IGNORE  TRUE
   GEOM_OPT_MAX_CYCLES 400
   SCF_MAX_CYCLES 400
   METHOD   B3LYP
   BASIS   6-31G**
   PDB_PRINT 2
   SCF_CONVERGENCE 6
   THRESH 14
   SCF_PRINT 1
$end
$molecule
0 1
C -1.724218 1.269498 0.155121
C -1.037780 0.000000 -0.364235
Se 0.837382 0.000000 -0.058023
H 0.745485 0.000000 1.416473
C -1.724218 -1.269498 0.155121
H -1.262832 2.171068 -0.255025
H -2.786876 1.268663 -0.116463
H -1.661104 1.326992 1.247652
H -1.096828 0.000000 -1.460284
H -2.786876 -1.268663 -0.116463
H -1.262832 -2.171068 -0.255025
H -1.661104 -1.326992 1.247652
$end
$scan
stre 2 3 2.000000 2.001000 0.100000
$end
