
$comment
	potential surface scanner
$end

$rem
   JOBTYPE  PES_SCAN
   UNRESTRICTED TRUE
   SYM_IGNORE  TRUE
   GEOM_OPT_MAX_CYCLES 400
   SCF_MAX_CYCLES 400
   METHOD   B3LYP
   BASIS   6-31G**
   PDB_PRINT 2
   SCF_CONVERGENCE 6
   THRESH 14
   SCF_PRINT 1
$end
$molecule
0 3
C -1.678798 1.261529 0.090383
C -1.043548 -0.012915 -0.410444
Se 0.997376 -0.167830 0.396173
H 0.162968 0.279319 1.671714
C -1.724864 -1.284910 0.058803
H -1.241486 2.152475 -0.373199
H -2.761561 1.282972 -0.095518
H -1.545971 1.349454 1.182362
H -0.844885 -0.012260 -1.484156
H -2.774937 -1.317978 -0.266317
H -1.233790 -2.184490 -0.330057
H -1.732289 -1.345364 1.156761
$end
$scan
stre 2 3 2.100000 2.101000 0.100000
$end
