
$comment
	potential surface scanner
$end

$rem
   JOBTYPE  PES_SCAN
   UNRESTRICTED TRUE
   SYM_IGNORE  TRUE
   GEOM_OPT_MAX_CYCLES 400
   SCF_MAX_CYCLES 400
   METHOD   B3LYP
   BASIS   6-31G**
   PDB_PRINT 2
   SCF_CONVERGENCE 6
   THRESH 14
   SCF_PRINT 1
$end
$molecule
0 3
C -2.328988 1.299218 0.104102
C -1.635006 0.000000 -0.134231
Se 3.464961 0.000000 -0.115630
H 3.291372 0.000000 1.354353
C -2.328988 -1.299218 0.104102
H -1.632134 2.143421 0.097211
H -3.093816 1.510575 -0.664914
H -2.859069 1.303993 1.066421
H -0.715107 0.000000 -0.713638
H -3.093816 -1.510575 -0.664914
H -1.632134 -2.143421 0.097211
H -2.859069 -1.303993 1.066421
$end
$scan
stre 2 3 5.000000 5.001000 0.100000
$end
