
$comment
	potential surface scanner
$end

$rem
   JOBTYPE  PES_SCAN
   UNRESTRICTED TRUE
   SYM_IGNORE  TRUE
   GEOM_OPT_MAX_CYCLES 400
   SCF_MAX_CYCLES 400
   METHOD   B3LYP
   BASIS   6-31G**
   PDB_PRINT 2
   SCF_CONVERGENCE 6
   THRESH 14
   SCF_PRINT 1
$end
$molecule
0 3
C -2.393357 1.299326 0.095370
C -1.692992 0.000000 -0.122336
Se 3.706969 0.000000 -0.101950
H 3.666488 0.000000 1.378092
C -2.393357 -1.299326 0.095370
H -1.697206 2.143996 0.103670
H -3.139590 1.507905 -0.692338
H -2.946886 1.306216 1.044549
H -0.748182 0.000000 -0.659811
H -3.139590 -1.507905 -0.692338
H -1.697206 -2.143996 0.103670
H -2.946886 -1.306216 1.044549
$end
$scan
stre 2 3 5.300000 5.301000 0.100000
$end
