
$comment
	potential surface scanner
$end

$rem
   JOBTYPE  PES_SCAN
   UNRESTRICTED TRUE
   SYM_IGNORE  TRUE
   GEOM_OPT_MAX_CYCLES 400
   SCF_MAX_CYCLES 400
   METHOD   B3LYP
   BASIS   6-31G**
   PDB_PRINT 2
   SCF_CONVERGENCE 6
   THRESH 14
   SCF_PRINT 1
$end
$molecule
0 3
C -1.979079 1.302014 0.156606
C -1.314715 0.000000 -0.142569
Se 2.085094 0.000000 -0.178619
H 1.289904 0.000000 1.069435
C -1.979079 -1.302014 0.156606
H -1.278441 2.141106 0.098503
H -2.799568 1.521851 -0.549655
H -2.430479 1.300511 1.157360
H -0.506937 0.000000 -0.877371
H -2.799568 -1.521851 -0.549655
H -1.278441 -2.141106 0.098503
H -2.430479 -1.300511 1.157360
$end
$scan
stre 2 3 3.300000 3.301000 0.100000
$end
