
$comment
	potential surface scanner
$end

$rem
   JOBTYPE  PES_SCAN
   UNRESTRICTED TRUE
   SYM_IGNORE  TRUE
   GEOM_OPT_MAX_CYCLES 400
   SCF_MAX_CYCLES 400
   METHOD   B3LYP
   BASIS   6-31G**
   PDB_PRINT 2
   SCF_CONVERGENCE 6
   THRESH 14
   SCF_PRINT 1
$end
$molecule
0 3
C -2.430133 1.299608 0.094476
C -1.719693 0.000000 -0.085496
Se 3.880119 0.000000 -0.131361
H 3.825467 0.000000 1.348148
C -2.430133 -1.299608 0.094476
H -1.734589 2.143246 0.146653
H -3.128017 1.511944 -0.735386
H -3.038816 1.304497 1.009265
H -0.744583 0.000000 -0.564809
H -3.128017 -1.511944 -0.735386
H -1.734589 -2.143246 0.146653
H -3.038816 -1.304497 1.009265
$end
$scan
stre 2 3 5.500000 5.501000 0.100000
$end
