
$comment
	potential surface scanner
$end

$rem
   JOBTYPE  PES_SCAN
   UNRESTRICTED TRUE
   SYM_IGNORE  TRUE
   GEOM_OPT_MAX_CYCLES 400
   SCF_MAX_CYCLES 400
   METHOD   B3LYP
   BASIS   6-31G**
   PDB_PRINT 2
   SCF_CONVERGENCE 6
   THRESH 14
   SCF_PRINT 1
$end
$molecule
0 3
C -1.900007 1.302071 0.160850
C -1.225516 0.000000 -0.114266
Se 1.571619 0.000000 -0.240902
H 1.053698 -0.000000 1.133121
C -1.900007 -1.302071 0.160850
H -1.201348 2.142363 0.096764
H -2.718649 1.507151 -0.551257
H -2.353988 1.305858 1.160229
H -0.473601 0.000000 -0.914623
H -2.718649 -1.507151 -0.551257
H -1.201348 -2.142363 0.096764
H -2.353988 -1.305858 1.160229
$end
$scan
stre 2 3 2.700000 2.701000 0.100000
$end
