
$comment
	potential surface scanner
$end

$rem
   JOBTYPE  PES_SCAN
   UNRESTRICTED TRUE
   SYM_IGNORE  TRUE
   GEOM_OPT_MAX_CYCLES 400
   SCF_MAX_CYCLES 400
   METHOD   B3LYP
   BASIS   6-31G**
   PDB_PRINT 2
   SCF_CONVERGENCE 6
   THRESH 14
   SCF_PRINT 1
$end
$molecule
0 3
C -2.090179 1.298704 0.128797
C -1.434745 0.000000 -0.203907
Se 2.661795 0.000000 -0.035505
H 1.818178 0.000000 1.182906
C -2.090179 -1.298704 0.128797
H -1.401641 2.143677 0.026210
H -2.953218 1.510496 -0.528070
H -2.484432 1.302850 1.154263
H -0.608076 0.000000 -0.909398
H -2.953218 -1.510496 -0.528070
H -1.401641 -2.143677 0.026210
H -2.484432 -1.302850 1.154263
$end
$scan
stre 2 3 4.000000 4.001000 0.100000
$end
