
$comment
	potential surface scanner
$end

$rem
   JOBTYPE  PES_SCAN
   UNRESTRICTED TRUE
   SYM_IGNORE  TRUE
   GEOM_OPT_MAX_CYCLES 400
   SCF_MAX_CYCLES 400
   METHOD   B3LYP
   BASIS   6-31G**
   PDB_PRINT 2
   SCF_CONVERGENCE 6
   THRESH 14
   SCF_PRINT 1
$end
$molecule
0 1
C -1.772083 1.283924 0.146737
C -1.210078 0.000000 -0.408952
Se 1.152322 0.000000 0.014212
H 0.935517 0.000000 1.476034
C -1.772083 -1.283924 0.146737
H -1.271567 2.162077 -0.264533
H -2.839959 1.345305 -0.114454
H -1.700839 1.319564 1.237772
H -1.130668 0.000000 -1.495841
H -2.839959 -1.345305 -0.114454
H -1.271567 -2.162077 -0.264533
H -1.700839 -1.319564 1.237772
$end
$scan
stre 2 3 2.500000 2.501000 0.100000
$end
