
$comment
	potential surface scanner
$end

$rem
   JOBTYPE  PES_SCAN
   UNRESTRICTED TRUE
   SYM_IGNORE  TRUE
   GEOM_OPT_MAX_CYCLES 400
   SCF_MAX_CYCLES 400
   METHOD   B3LYP
   BASIS   6-31G**
   PDB_PRINT 2
   SCF_CONVERGENCE 6
   THRESH 14
   SCF_PRINT 1
$end
$molecule
0 3
C -1.962320 1.302387 0.157093
C -1.300135 0.000000 -0.144827
Se 1.999668 0.000000 -0.180883
H 1.212742 0.000000 1.071561
C -1.962320 -1.302387 0.157093
H -1.261317 2.140880 0.094980
H -2.786846 1.522544 -0.544263
H -2.407749 1.300775 1.160522
H -0.497599 0.000000 -0.886011
H -2.786846 -1.522544 -0.544263
H -1.261317 -2.140880 0.094980
H -2.407749 -1.300775 1.160522
$end
$scan
stre 2 3 3.200000 3.201000 0.100000
$end
