
$comment
	potential surface scanner
$end

$rem
   JOBTYPE  PES_SCAN
   UNRESTRICTED TRUE
   SYM_IGNORE  TRUE
   GEOM_OPT_MAX_CYCLES 400
   SCF_MAX_CYCLES 400
   METHOD   B3LYP
   BASIS   6-31G**
   PDB_PRINT 2
   SCF_CONVERGENCE 6
   THRESH 14
   SCF_PRINT 1
$end
$molecule
0 3
O 0.000290 -1.557452 0.002262
C -0.000024 0.042547 0.000539
C 1.312515 0.716569 -0.000308
C -1.312828 0.716053 -0.000320
H 1.407660 1.367241 -0.881184
H 1.407156 1.370767 0.877995
H 2.109199 -0.025498 0.001330
H -2.109219 -0.026328 0.001328
H -1.408225 1.366671 -0.881210
H -1.407725 1.370231 0.877970
$end
$scan
stre 1 2 4.000000 4.001000 0.100000
$end
