
$comment
	potential surface scanner
$end

$rem
   JOBTYPE  PES_SCAN
   UNRESTRICTED TRUE
   SYM_IGNORE  TRUE
   GEOM_OPT_MAX_CYCLES 400
   SCF_MAX_CYCLES 400
   METHOD   B3LYP
   BASIS   6-31G**
   PDB_PRINT 2
   SCF_CONVERGENCE 6
   THRESH 14
   SCF_PRINT 1
$end
$molecule
0 1
O 0.000243 -1.315604 0.001463
C 0.000008 -0.115605 0.000582
C 1.292268 0.689727 -0.000201
C -1.292570 0.689218 -0.000214
H 1.338863 1.339902 -0.881571
H 1.337920 1.343744 0.878349
H 2.148417 0.013836 0.001635
H -2.148453 0.012990 0.001635
H -1.339419 1.339357 -0.881598
H -1.338477 1.343237 0.878321
$end
$scan
stre 1 2 1.300000 1.301000 0.100000
$end
