
$comment
	potential surface scanner
$end

$rem
   JOBTYPE  PES_SCAN
   UNRESTRICTED TRUE
   SYM_IGNORE  TRUE
   GEOM_OPT_MAX_CYCLES 400
   SCF_MAX_CYCLES 400
   METHOD   B3LYP
   BASIS   6-31G**
   PDB_PRINT 2
   SCF_CONVERGENCE 6
   THRESH 14
   SCF_PRINT 1
$end
$molecule
0 1
O 0.000245 -1.324185 0.001318
C 0.000006 -0.108337 0.000516
C 1.292608 0.690621 -0.000167
C -1.292911 0.690111 -0.000180
H 1.341317 1.340746 -0.881573
H 1.340289 1.344705 0.878329
H 2.146232 0.011795 0.001728
H -2.146269 0.010951 0.001729
H -1.341872 1.340198 -0.881600
H -1.340845 1.344196 0.878300
$end
$scan
stre 1 2 1.100000 1.101000 0.100000
$end
