
$comment
	potential surface scanner
$end

$rem
   JOBTYPE  PES_SCAN
   UNRESTRICTED TRUE
   SYM_IGNORE  TRUE
   GEOM_OPT_MAX_CYCLES 400
   SCF_MAX_CYCLES 400
   METHOD   B3LYP
   BASIS   6-31G**
   PDB_PRINT 2
   SCF_CONVERGENCE 6
   THRESH 14
   SCF_PRINT 1
$end
$molecule
0 1
O 0.000255 -1.371429 0.001690
C -0.000002 -0.071430 0.000591
C 1.295544 0.695444 -0.000231
C -1.295849 0.694934 -0.000244
H 1.355029 1.346188 -0.881253
H 1.354244 1.349931 0.878046
H 2.135965 0.001475 0.001531
H -2.135997 0.000635 0.001531
H -1.355586 1.345637 -0.881279
H -1.354803 1.349417 0.878019
$end
$scan
stre 1 2 1.400000 1.401000 0.100000
$end
