
$comment
	potential surface scanner
$end

$rem
   JOBTYPE  PES_SCAN
   UNRESTRICTED TRUE
   SYM_IGNORE  TRUE
   GEOM_OPT_MAX_CYCLES 400
   SCF_MAX_CYCLES 400
   METHOD   B3LYP
   BASIS   6-31G**
   PDB_PRINT 2
   SCF_CONVERGENCE 6
   THRESH 14
   SCF_PRINT 1
$end
$molecule
0 1
O 0.000268 -1.430250 0.001899
C -0.000010 -0.030251 0.000584
C 1.300873 0.701930 -0.000259
C -1.301181 0.701418 -0.000272
H 1.373168 1.353052 -0.881011
H 1.372506 1.356709 0.877814
H 2.125428 -0.009828 0.001448
H -2.125457 -0.010663 0.001447
H -1.373727 1.352495 -0.881037
H -1.373068 1.356188 0.877788
$end
$scan
stre 1 2 1.500000 1.501000 0.100000
$end
