$comment
     Length-scal DFT calculation for PE - thioketone
$end

$molecule
0  1
S -1.38098 -0.00022 -0.00097
C 0.25794 -0.00002 -0.00047
C 1.06915 1.26908 0.00015
C 1.06941 -1.26894 0.00017
H 1.72543 1.29489 0.88022
H 1.73192 1.29229 -0.87506
H 0.43429 2.15444 -0.00332
H 0.43469 -2.15442 -0.00192
H 1.72689 -1.29395 0.87935
H 1.73099 -1.29258 -0.87594
$end

$rem
     JOBTYPE  PES_SCAN
     UNRESTRICTED TRUE 
     SYM_IGNORE  TRUE
     GEOM_OPT_MAX_CYCLES 400 
     SCF_MAX_CYCLES 400
     METHOD   B3LYP
     BASIS   6-31G**
     PDB_PRINT 2
     SCF_CONVERGENCE 6
     THRESH 14
     SCF_PRINT 1
$end

$scan 
stre 1 2 1.25 2.5 0.05
$end
