
$comment
	potential surface scanner
$end

$rem
   JOBTYPE  PES_SCAN
   UNRESTRICTED TRUE
   SYM_IGNORE  TRUE
   GEOM_OPT_MAX_CYCLES 400
   SCF_MAX_CYCLES 400
   METHOD   B3LYP
   BASIS   6-31G**
   PDB_PRINT 2
   SCF_CONVERGENCE 6
   THRESH 14
   SCF_PRINT 1
$end
$molecule
0 3
Br 1.984235 -0.345932 -0.746913
Br 0.949670 2.112274 0.398532
C -0.796203 -1.337038 0.009711
C 0.225903 -0.968869 0.870465
C -1.845711 -0.421449 -0.510290
H -0.813524 -2.364696 -0.351726
H 0.222878 -0.002422 1.352848
H 0.834056 -1.745408 1.323342
H -2.838251 -0.782289 -0.205887
H -1.712710 0.603614 -0.161257
H -1.845549 -0.426786 -1.608017
$end
$scan
stre 2 4 3.100000 3.101000 0.100000
$end
