
$comment
	potential surface scanner
$end

$rem
   JOBTYPE  PES_SCAN
   UNRESTRICTED TRUE
   SYM_IGNORE  TRUE
   GEOM_OPT_MAX_CYCLES 400
   SCF_MAX_CYCLES 400
   METHOD   B3LYP
   BASIS   6-31G**
   PDB_PRINT 2
   SCF_CONVERGENCE 6
   THRESH 14
   SCF_PRINT 1
$end
$molecule
0 3
Br 1.408670 -0.042635 -2.443580
Br 1.645337 0.760327 0.411606
C -0.672275 -1.169928 0.221737
C 0.013523 -0.594592 1.301199
C -1.785243 -0.507756 -0.503265
H -0.274744 -2.089647 -0.201069
H -0.479358 0.194163 1.861621
H 0.688996 -1.218236 1.876260
H -2.549864 -1.232257 -0.803950
H -2.250027 0.292011 0.079645
H -1.380224 -0.070451 -1.429391
$end
$scan
stre 2 4 2.200000 2.201000 0.100000
$end
