
$comment
	potential surface scanner
$end

$rem
   JOBTYPE  PES_SCAN
   UNRESTRICTED TRUE
   SYM_IGNORE  TRUE
   GEOM_OPT_MAX_CYCLES 400
   SCF_MAX_CYCLES 400
   METHOD   B3LYP
   BASIS   6-31G**
   PDB_PRINT 2
   SCF_CONVERGENCE 6
   THRESH 14
   SCF_PRINT 1
$end
$molecule
0 1
Br -0.679787 1.791406 0.179779
Br 2.480051 -0.115909 -0.281155
C -0.539392 -0.127826 -0.326803
C 0.610422 -0.793126 0.394024
C -1.860187 -0.830524 -0.012649
H -0.356485 -0.104766 -1.401000
H 0.629279 -0.605602 1.465100
H 0.651457 -1.859754 0.174088
H -2.068248 -0.827475 1.060715
H -2.687579 -0.334872 -0.524538
H -1.814731 -1.870550 -0.356763
$end
$scan
stre 2 4 2.200000 2.201000 0.100000
$end
