
$comment
	potential surface scanner
$end

$rem
   JOBTYPE  PES_SCAN
   UNRESTRICTED TRUE
   SYM_IGNORE  TRUE
   GEOM_OPT_MAX_CYCLES 400
   SCF_MAX_CYCLES 400
   METHOD   B3LYP
   BASIS   6-31G**
   PDB_PRINT 2
   SCF_CONVERGENCE 6
   THRESH 14
   SCF_PRINT 1
$end
$molecule
0 1
Br -0.697714 1.777387 0.222205
Br 2.664444 -0.093236 -0.405858
C -0.559257 -0.129553 -0.298101
C 0.540727 -0.815068 0.447829
C -1.895282 -0.836687 -0.028516
H -0.346275 -0.110291 -1.366444
H 0.678321 -0.559573 1.493511
H 0.660907 -1.870357 0.215980
H -2.137159 -0.843660 1.037327
H -2.700239 -0.326454 -0.561749
H -1.843674 -1.871506 -0.385387
$end
$scan
stre 2 4 2.500000 2.501000 0.100000
$end
