
$comment
	potential surface scanner
$end

$rem
   JOBTYPE  PES_SCAN
   UNRESTRICTED TRUE
   SYM_IGNORE  TRUE
   GEOM_OPT_MAX_CYCLES 400
   SCF_MAX_CYCLES 400
   METHOD   B3LYP
   BASIS   6-31G**
   PDB_PRINT 2
   SCF_CONVERGENCE 6
   THRESH 14
   SCF_PRINT 1
$end
$molecule
0 3
Br -0.707821 1.742172 0.031820
Br 5.451049 0.166969 -0.743774
C -0.888429 -0.442466 -0.295661
C 0.204058 -0.974153 0.446569
C -2.296713 -0.806571 0.118165
H -0.735573 -0.410266 -1.372058
H 0.080505 -1.245138 1.490365
H 1.207920 -0.968261 0.039104
H -2.435659 -0.693886 1.196273
H -3.035778 -0.190806 -0.396199
H -2.478762 -1.856593 -0.143806
$end
$scan
stre 2 4 5.400000 5.401000 0.100000
$end
