
$comment
	potential surface scanner
$end

$rem
   JOBTYPE  PES_SCAN
   UNRESTRICTED TRUE
   SYM_IGNORE  TRUE
   GEOM_OPT_MAX_CYCLES 400
   SCF_MAX_CYCLES 400
   METHOD   B3LYP
   BASIS   6-31G**
   PDB_PRINT 2
   SCF_CONVERGENCE 6
   THRESH 14
   SCF_PRINT 1
$end
$molecule
0 3
Br 1.908104 0.367829 0.489093
Br 0.778576 2.418287 -1.180713
C -0.647032 -1.292194 -0.184275
C -0.018316 -1.554151 0.997522
C -1.739774 -0.306321 -0.364469
H -0.288756 -1.800622 -1.078202
H -0.354280 -1.099889 1.924548
H 0.754594 -2.311474 1.067445
H -2.165003 0.024753 0.585903
H -1.330396 0.578988 -0.878958
H -2.532922 -0.704205 -1.007095
$end
$scan
stre 2 4 4.500000 4.501000 0.100000
$end
