
$comment
	potential surface scanner
$end

$rem
   JOBTYPE  PES_SCAN
   UNRESTRICTED TRUE
   SYM_IGNORE  TRUE
   GEOM_OPT_MAX_CYCLES 400
   SCF_MAX_CYCLES 400
   METHOD   B3LYP
   BASIS   6-31G**
   PDB_PRINT 2
   SCF_CONVERGENCE 6
   THRESH 14
   SCF_PRINT 1
$end
$molecule
0 3
Br 1.876305 0.436679 0.411848
Br 0.793861 2.496596 -1.279504
C -0.624492 -1.286240 -0.166161
C -0.063924 -1.624581 1.027033
C -1.715378 -0.295618 -0.348794
H -0.231325 -1.753307 -1.068037
H -0.426286 -1.201840 1.959335
H 0.719050 -2.372204 1.090639
H -2.143388 0.032763 0.601201
H -1.311207 0.587559 -0.867593
H -2.508422 -0.698808 -0.989169
$end
$scan
stre 2 4 4.700000 4.701000 0.100000
$end
