
$comment
	potential surface scanner
$end

$rem
   JOBTYPE  PES_SCAN
   UNRESTRICTED TRUE
   SYM_IGNORE  TRUE
   GEOM_OPT_MAX_CYCLES 400
   SCF_MAX_CYCLES 400
   METHOD   B3LYP
   BASIS   6-31G**
   PDB_PRINT 2
   SCF_CONVERGENCE 6
   THRESH 14
   SCF_PRINT 1
$end
$molecule
0 1
Br -0.698666 1.772858 0.221463
Br 2.735664 -0.069028 -0.417137
C -0.566239 -0.133332 -0.295056
C 0.518719 -0.825227 0.456544
C -1.907551 -0.836859 -0.027554
H -0.349474 -0.120229 -1.362818
H 0.681190 -0.560953 1.496028
H 0.670472 -1.872292 0.208484
H -2.152118 -0.839501 1.037595
H -2.707164 -0.322053 -0.564410
H -1.860034 -1.872383 -0.382343
$end
$scan
stre 2 4 2.600000 2.601000 0.100000
$end
