
$comment
	potential surface scanner
$end

$rem
   JOBTYPE  PES_SCAN
   UNRESTRICTED TRUE
   SYM_IGNORE  TRUE
   GEOM_OPT_MAX_CYCLES 400
   SCF_MAX_CYCLES 400
   METHOD   B3LYP
   BASIS   6-31G**
   PDB_PRINT 2
   SCF_CONVERGENCE 6
   THRESH 14
   SCF_PRINT 1
$end
$molecule
0 1
Br -0.685600 1.788986 0.184333
Br 2.551194 -0.107944 -0.298021
C -0.546891 -0.126307 -0.324762
C 0.584422 -0.799995 0.404028
C -1.869965 -0.832060 -0.014039
H -0.359576 -0.106661 -1.398030
H 0.635152 -0.596710 1.470106
H 0.654841 -1.861918 0.174699
H -2.079540 -0.830544 1.059003
H -2.695784 -0.334573 -0.526657
H -1.823452 -1.871273 -0.359862
$end
$scan
stre 2 4 2.300000 2.301000 0.100000
$end
