
$comment
	potential surface scanner
$end

$rem
   JOBTYPE  PES_SCAN
   UNRESTRICTED TRUE
   SYM_IGNORE  TRUE
   GEOM_OPT_MAX_CYCLES 400
   SCF_MAX_CYCLES 400
   METHOD   B3LYP
   BASIS   6-31G**
   PDB_PRINT 2
   SCF_CONVERGENCE 6
   THRESH 14
   SCF_PRINT 1
$end
$molecule
0 1
Br -0.680524 1.798994 0.172492
Br 2.425014 -0.145374 -0.244904
C -0.533722 -0.122181 -0.335414
C 0.633192 -0.780169 0.376713
C -1.846238 -0.830992 -0.008989
H -0.360606 -0.093946 -1.411364
H 0.613215 -0.609919 1.451969
H 0.637176 -1.851042 0.167147
H -2.043003 -0.828520 1.066665
H -2.683725 -0.344145 -0.512582
H -1.795980 -1.871704 -0.350933
$end
$scan
stre 2 4 2.100000 2.101000 0.100000
$end
