
$comment
	potential surface scanner
$end

$rem
   JOBTYPE  PES_SCAN
   UNRESTRICTED TRUE
   SYM_IGNORE  TRUE
   GEOM_OPT_MAX_CYCLES 400
   SCF_MAX_CYCLES 400
   METHOD   B3LYP
   BASIS   6-31G**
   PDB_PRINT 2
   SCF_CONVERGENCE 6
   THRESH 14
   SCF_PRINT 1
$end
$molecule
0 3
Br 1.375961 0.029363 -2.509674
Br 1.754563 0.727202 0.327251
C -0.672255 -1.160683 0.243977
C -0.064812 -0.636258 1.366892
C -1.775745 -0.510917 -0.505027
H -0.254828 -2.071278 -0.181364
H -0.505490 0.211288 1.881725
H 0.651439 -1.226483 1.925633
H -2.523856 -1.248748 -0.816064
H -2.261114 0.284614 0.065710
H -1.359071 -0.077100 -1.428247
$end
$scan
stre 2 4 2.400000 2.401000 0.100000
$end
