
$comment
	potential surface scanner
$end

$rem
   JOBTYPE  PES_SCAN
   UNRESTRICTED TRUE
   SYM_IGNORE  TRUE
   GEOM_OPT_MAX_CYCLES 400
   SCF_MAX_CYCLES 400
   METHOD   B3LYP
   BASIS   6-31G**
   PDB_PRINT 2
   SCF_CONVERGENCE 6
   THRESH 14
   SCF_PRINT 1
$end
$molecule
0 3
Br 2.054375 0.121727 0.332393
Br 0.657226 2.471600 -0.572814
C -0.681602 -1.327522 -0.198534
C 0.056984 -1.393536 0.957033
C -1.757367 -0.338978 -0.455077
H -0.423758 -2.006859 -1.009511
H -0.210283 -0.789815 1.817742
H 0.748346 -2.211125 1.126106
H -2.102599 0.144927 0.461177
H -1.371599 0.454277 -1.116767
H -2.604928 -0.803698 -0.970945
$end
$scan
stre 2 4 4.100000 4.101000 0.100000
$end
