
$comment
	potential surface scanner
$end

$rem
   JOBTYPE  PES_SCAN
   UNRESTRICTED TRUE
   SYM_IGNORE  TRUE
   GEOM_OPT_MAX_CYCLES 400
   SCF_MAX_CYCLES 400
   METHOD   B3LYP
   BASIS   6-31G**
   PDB_PRINT 2
   SCF_CONVERGENCE 6
   THRESH 14
   SCF_PRINT 1
$end
$molecule
0 3
Br 1.844452 0.463595 0.380574
Br 0.797969 2.547028 -1.324635
C -0.615042 -1.288594 -0.157594
C -0.079517 -1.654731 1.038676
C -1.700260 -0.290438 -0.342621
H -0.214112 -1.748102 -1.059968
H -0.449945 -1.240106 1.971535
H 0.700834 -2.405264 1.101905
H -2.130415 0.036407 0.607022
H -1.295707 0.593237 -0.859957
H -2.493461 -0.692034 -0.984139
$end
$scan
stre 2 4 4.800000 4.801000 0.100000
$end
