
$comment
	potential surface scanner
$end

$rem
   JOBTYPE  PES_SCAN
   UNRESTRICTED TRUE
   SYM_IGNORE  TRUE
   GEOM_OPT_MAX_CYCLES 400
   SCF_MAX_CYCLES 400
   METHOD   B3LYP
   BASIS   6-31G**
   PDB_PRINT 2
   SCF_CONVERGENCE 6
   THRESH 14
   SCF_PRINT 1
$end
$molecule
0 3
Br 1.350223 0.126918 -2.643582
Br 1.843566 0.702265 0.131432
C -0.664593 -1.151112 0.286553
C -0.174327 -0.698073 1.475740
C -1.740142 -0.503872 -0.505332
H -0.208170 -2.039422 -0.147527
H -0.596939 0.173579 1.965959
H 0.582759 -1.253406 2.017357
H -2.490678 -1.243169 -0.810163
H -2.229810 0.309214 0.035984
H -1.307097 -0.101923 -1.435611
$end
$scan
stre 2 4 2.700000 2.701000 0.100000
$end
