
$comment
	potential surface scanner
$end

$rem
   JOBTYPE  PES_SCAN
   UNRESTRICTED TRUE
   SYM_IGNORE  TRUE
   GEOM_OPT_MAX_CYCLES 400
   SCF_MAX_CYCLES 400
   METHOD   B3LYP
   BASIS   6-31G**
   PDB_PRINT 2
   SCF_CONVERGENCE 6
   THRESH 14
   SCF_PRINT 1
$end
$molecule
0 3
Br 1.932471 -0.236862 -0.722237
Br 1.199882 2.437983 0.258245
C -0.818957 -1.391454 0.011460
C 0.167338 -1.054464 0.911443
C -1.853844 -0.453310 -0.498918
H -0.829394 -2.406194 -0.384728
H 0.162889 -0.081770 1.393410
H 0.810415 -1.817042 1.336101
H -2.855182 -0.826354 -0.243185
H -1.733222 0.554223 -0.096248
H -1.817599 -0.403757 -1.594535
$end
$scan
stre 2 4 3.600000 3.601000 0.100000
$end
