
$comment
	potential surface scanner
$end

$rem
   JOBTYPE  PES_SCAN
   UNRESTRICTED TRUE
   SYM_IGNORE  TRUE
   GEOM_OPT_MAX_CYCLES 400
   SCF_MAX_CYCLES 400
   METHOD   B3LYP
   BASIS   6-31G**
   PDB_PRINT 2
   SCF_CONVERGENCE 6
   THRESH 14
   SCF_PRINT 1
$end
$molecule
0 1
Br -0.688369 1.784033 0.190682
Br 2.615289 -0.090178 -0.325296
C -0.553540 -0.128656 -0.318342
C 0.561034 -0.809456 0.418124
C -1.882231 -0.832852 -0.016459
H -0.358736 -0.113593 -1.390239
H 0.645929 -0.590229 1.478049
H 0.663445 -1.865462 0.178042
H -2.099347 -0.831379 1.054953
H -2.701315 -0.329892 -0.534639
H -1.837358 -1.871335 -0.364077
$end
$scan
stre 2 4 2.400000 2.401000 0.100000
$end
