
$comment
	potential surface scanner
$end

$rem
   JOBTYPE  PES_SCAN
   UNRESTRICTED TRUE
   SYM_IGNORE  TRUE
   GEOM_OPT_MAX_CYCLES 400
   SCF_MAX_CYCLES 400
   METHOD   B3LYP
   BASIS   6-31G**
   PDB_PRINT 2
   SCF_CONVERGENCE 6
   THRESH 14
   SCF_PRINT 1
$end
$molecule
0 3
Br -0.710365 1.760879 0.252360
Br 2.871844 -0.008328 -0.448122
C -0.579837 -0.137960 -0.277191
C 0.478761 -0.844401 0.481468
C -1.931386 -0.841931 -0.037441
H -0.347475 -0.124110 -1.341923
H 0.681724 -0.574013 1.511738
H 0.694680 -1.869402 0.193854
H -2.198372 -0.843656 1.021956
H -2.714059 -0.319699 -0.591852
H -1.880717 -1.876379 -0.394048
$end
$scan
stre 2 4 5.700000 5.701000 0.100000
$end
