
$comment
	potential surface scanner
$end

$rem
   JOBTYPE  PES_SCAN
   UNRESTRICTED TRUE
   SYM_IGNORE  TRUE
   GEOM_OPT_MAX_CYCLES 400
   SCF_MAX_CYCLES 400
   METHOD   B3LYP
   BASIS   6-31G**
   PDB_PRINT 2
   SCF_CONVERGENCE 6
   THRESH 14
   SCF_PRINT 1
$end
$molecule
0 3
Br -0.698083 1.731660 0.016317
Br 5.620775 0.233484 -0.750708
C -0.905218 -0.456012 -0.297039
C 0.184175 -0.993493 0.444244
C -2.315859 -0.799839 0.125244
H -0.757027 -0.430776 -1.374255
H 0.060208 -1.260536 1.489007
H 1.187499 -0.998066 0.033939
H -2.446362 -0.688262 1.204597
H -3.048760 -0.171082 -0.382095
H -2.516551 -1.846078 -0.138452
$end
$scan
stre 2 4 5.600000 5.601000 0.100000
$end
