
$comment
	potential surface scanner
$end

$rem
   JOBTYPE  PES_SCAN
   UNRESTRICTED TRUE
   SYM_IGNORE  TRUE
   GEOM_OPT_MAX_CYCLES 400
   SCF_MAX_CYCLES 400
   METHOD   B3LYP
   BASIS   6-31G**
   PDB_PRINT 2
   SCF_CONVERGENCE 6
   THRESH 14
   SCF_PRINT 1
$end
$molecule
0 3
Br 2.086435 0.068158 0.280687
Br 0.651232 2.448335 -0.477652
C -0.688721 -1.329213 -0.196996
C 0.073808 -1.352407 0.947461
C -1.768805 -0.348639 -0.465981
H -0.444305 -2.036669 -0.987675
H -0.180611 -0.718136 1.789910
H 0.747235 -2.179084 1.143287
H -2.142802 0.116446 0.448976
H -1.371829 0.462892 -1.097723
H -2.596842 -0.810685 -1.013490
$end
$scan
stre 2 4 4.000000 4.001000 0.100000
$end
