
$comment
	potential surface scanner
$end

$rem
   JOBTYPE  PES_SCAN
   UNRESTRICTED TRUE
   SYM_IGNORE  TRUE
   GEOM_OPT_MAX_CYCLES 400
   SCF_MAX_CYCLES 400
   METHOD   B3LYP
   BASIS   6-31G**
   PDB_PRINT 2
   SCF_CONVERGENCE 6
   THRESH 14
   SCF_PRINT 1
$end
$molecule
0 3
Br 1.969918 -0.309168 -0.726059
Br 0.966806 2.235098 0.275976
C -0.801009 -1.356778 0.012381
C 0.204992 -1.019592 0.897775
C -1.835228 -0.419163 -0.498928
H -0.819925 -2.374648 -0.375609
H 0.208292 -0.055831 1.391544
H 0.820845 -1.800166 1.331694
H -2.835658 -0.784800 -0.228526
H -1.704109 0.593300 -0.113613
H -1.810130 -0.387254 -1.595827
$end
$scan
stre 2 4 3.300000 3.301000 0.100000
$end
