
$comment
	potential surface scanner
$end

$rem
   JOBTYPE  PES_SCAN
   UNRESTRICTED TRUE
   SYM_IGNORE  TRUE
   GEOM_OPT_MAX_CYCLES 400
   SCF_MAX_CYCLES 400
   METHOD   B3LYP
   BASIS   6-31G**
   PDB_PRINT 2
   SCF_CONVERGENCE 6
   THRESH 14
   SCF_PRINT 1
$end
$molecule
0 3
Br 1.226295 -0.181629 -1.668653
Br 1.999252 1.309524 0.745998
C -0.566707 -1.118900 -0.048580
C -0.020386 -0.728437 1.167631
C -1.830163 -0.520823 -0.590249
H -0.270458 -2.087463 -0.440221
H -0.448714 0.090012 1.734331
H 0.777663 -1.294241 1.632134
H -2.685036 -1.082291 -0.187506
H -1.939835 0.525378 -0.295701
H -1.877120 -0.590130 -1.678375
$end
$scan
stre 2 4 2.800000 2.801000 0.100000
$end
