
$comment
	potential surface scanner
$end

$rem
   JOBTYPE  PES_SCAN
   UNRESTRICTED TRUE
   SYM_IGNORE  TRUE
   GEOM_OPT_MAX_CYCLES 400
   SCF_MAX_CYCLES 400
   METHOD   B3LYP
   BASIS   6-31G**
   PDB_PRINT 2
   SCF_CONVERGENCE 6
   THRESH 14
   SCF_PRINT 1
$end
$molecule
0 3
Br 1.961572 -0.295443 -0.721499
Br 1.040270 2.297540 0.239472
C -0.802919 -1.364529 0.009593
C 0.190035 -1.031211 0.907696
C -1.841254 -0.427712 -0.494938
H -0.810534 -2.376921 -0.392730
H 0.180840 -0.071148 1.409326
H 0.817276 -1.806384 1.334189
H -2.840565 -0.805441 -0.237542
H -1.721739 0.579515 -0.091979
H -1.808187 -0.377268 -1.590780
$end
$scan
stre 2 4 3.400000 3.401000 0.100000
$end
