
$comment
	potential surface scanner
$end

$rem
   JOBTYPE  PES_SCAN
   UNRESTRICTED TRUE
   SYM_IGNORE  TRUE
   GEOM_OPT_MAX_CYCLES 400
   SCF_MAX_CYCLES 400
   METHOD   B3LYP
   BASIS   6-31G**
   PDB_PRINT 2
   SCF_CONVERGENCE 6
   THRESH 14
   SCF_PRINT 1
$end
$molecule
0 1
Br -0.678643 1.803562 0.169422
Br 2.362728 -0.165762 -0.221129
C -0.527107 -0.120004 -0.339529
C 0.658835 -0.770029 0.363346
C -1.834601 -0.831070 -0.006631
H -0.360582 -0.086958 -1.416714
H 0.602983 -0.615013 1.441398
H 0.626573 -1.844220 0.164176
H -2.027048 -0.826604 1.069846
H -2.676835 -0.350097 -0.507885
H -1.781504 -1.872804 -0.345499
$end
$scan
stre 2 4 2.000000 2.001000 0.100000
$end
