
$comment
	potential surface scanner
$end

$rem
   JOBTYPE  PES_SCAN
   UNRESTRICTED TRUE
   SYM_IGNORE  TRUE
   GEOM_OPT_MAX_CYCLES 400
   SCF_MAX_CYCLES 400
   METHOD   B3LYP
   BASIS   6-31G**
   PDB_PRINT 2
   SCF_CONVERGENCE 6
   THRESH 14
   SCF_PRINT 1
$end
$molecule
0 3
Br 1.354191 0.109471 -2.593906
Br 1.827120 0.700810 0.206187
C -0.669219 -1.154993 0.272170
C -0.140291 -0.677195 1.439232
C -1.754224 -0.508982 -0.506663
H -0.226426 -2.052074 -0.157633
H -0.560264 0.194353 1.931395
H 0.607047 -1.240839 1.984967
H -2.505917 -1.248570 -0.807192
H -2.239648 0.302416 0.040862
H -1.327578 -0.103397 -1.438609
$end
$scan
stre 2 4 2.600000 2.601000 0.100000
$end
