
$comment
	potential surface scanner
$end

$rem
   JOBTYPE  PES_SCAN
   UNRESTRICTED TRUE
   SYM_IGNORE  TRUE
   GEOM_OPT_MAX_CYCLES 400
   SCF_MAX_CYCLES 400
   METHOD   B3LYP
   BASIS   6-31G**
   PDB_PRINT 2
   SCF_CONVERGENCE 6
   THRESH 14
   SCF_PRINT 1
$end
$molecule
0 3
S 0.299997 -1.377789 -0.355146
S -2.408703 -0.689721 0.387800
C 0.664350 0.516615 -0.348780
C -0.393358 1.253810 0.355047
C 2.072913 0.741321 0.203930
H 0.637142 0.723573 -1.422367
H -0.373617 1.334510 1.436561
H -1.214645 1.707171 -0.182192
H 2.346575 1.795780 0.091785
H 2.118986 0.497077 1.270606
H 2.811426 0.131429 -0.322758
H 0.544184 -1.573569 0.955802
H -2.865548 -1.935210 0.118708
$end
$scan
stre 2 4 2.700000 2.701000 0.100000
$end
