
$comment
	potential surface scanner
$end

$rem
   JOBTYPE  PES_SCAN
   UNRESTRICTED TRUE
   SYM_IGNORE  TRUE
   GEOM_OPT_MAX_CYCLES 400
   SCF_MAX_CYCLES 400
   METHOD   B3LYP
   BASIS   6-31G**
   PDB_PRINT 2
   SCF_CONVERGENCE 6
   THRESH 14
   SCF_PRINT 1
$end
$molecule
0 3
S 0.181594 -1.232493 -0.161401
S -3.859604 -1.807504 -0.244691
C 0.709000 0.605352 -0.221312
C -0.135649 1.395750 0.688751
C 2.210254 0.742015 0.030229
H 0.475435 0.837883 -1.265898
H 0.176616 1.559680 1.715974
H -1.157061 1.641029 0.420687
H 2.514975 1.785320 -0.109081
H 2.463725 0.452789 1.055425
H 2.786963 0.114921 -0.653397
H 0.396789 -1.404960 1.158702
H -2.523340 -1.564783 -0.224991
$end
$scan
stre 2 4 4.900000 4.901000 0.100000
$end
