
$comment
	potential surface scanner
$end

$rem
   JOBTYPE  PES_SCAN
   UNRESTRICTED TRUE
   SYM_IGNORE  TRUE
   GEOM_OPT_MAX_CYCLES 400
   SCF_MAX_CYCLES 400
   METHOD   B3LYP
   BASIS   6-31G**
   PDB_PRINT 2
   SCF_CONVERGENCE 6
   THRESH 14
   SCF_PRINT 1
$end
$molecule
0 3
S 0.468341 -1.556298 -0.172208
S -2.108886 -0.552706 0.377566
C 0.592941 0.342463 -0.300304
C -0.541617 0.990501 0.424264
C 1.986880 0.797176 0.137686
H 0.475483 0.480286 -1.379745
H -0.422182 1.095128 1.502770
H -0.986713 1.858263 -0.054557
H 2.094586 1.872838 -0.038176
H 2.138502 0.618983 1.207557
H 2.774078 0.275015 -0.415069
H 0.751273 -1.640804 1.143739
H -2.982985 -1.455849 -0.244526
$end
$scan
stre 2 4 2.100000 2.101000 0.100000
$end
