
$comment
	potential surface scanner
$end

$rem
   JOBTYPE  PES_SCAN
   UNRESTRICTED TRUE
   SYM_IGNORE  TRUE
   GEOM_OPT_MAX_CYCLES 400
   SCF_MAX_CYCLES 400
   METHOD   B3LYP
   BASIS   6-31G**
   PDB_PRINT 2
   SCF_CONVERGENCE 6
   THRESH 14
   SCF_PRINT 1
$end
$molecule
0 3
S 0.311144 -1.344916 -0.208598
S -3.736746 -1.322425 -0.091671
C 0.699003 0.529794 -0.251705
C -0.238715 1.248247 0.626259
C 2.174687 0.779312 0.054946
H 0.487266 0.744658 -1.304708
H 0.024332 1.436912 1.662975
H -1.268337 1.403768 0.324479
H 2.406225 1.841745 -0.080727
H 2.409794 0.515179 1.091312
H 2.821596 0.193591 -0.601974
H 0.529786 -1.507620 1.112355
H -2.380336 -1.393249 -0.143945
$end
$scan
stre 2 4 4.300000 4.301000 0.100000
$end
