
$comment
	potential surface scanner
$end

$rem
   JOBTYPE  PES_SCAN
   UNRESTRICTED TRUE
   SYM_IGNORE  TRUE
   GEOM_OPT_MAX_CYCLES 400
   SCF_MAX_CYCLES 400
   METHOD   B3LYP
   BASIS   6-31G**
   PDB_PRINT 2
   SCF_CONVERGENCE 6
   THRESH 14
   SCF_PRINT 1
$end
$molecule
0 3
S 0.183200 -1.309133 0.100186
S -2.799367 -1.220304 0.201741
C 0.648208 0.531190 -0.208024
C -0.228393 1.414700 0.571672
C 2.142947 0.730644 0.042502
H 0.420823 0.601975 -1.276933
H 0.084582 1.757978 1.553498
H -1.259159 1.566174 0.274946
H 2.427147 1.752377 -0.232913
H 2.386612 0.587750 1.100427
H 2.745027 0.032927 -0.544085
H 0.198782 -1.248299 1.445703
H -2.710707 -2.072982 -0.839721
$end
$scan
stre 2 4 3.600000 3.601000 0.100000
$end
