
$comment
	potential surface scanner
$end

$rem
   JOBTYPE  PES_SCAN
   UNRESTRICTED TRUE
   SYM_IGNORE  TRUE
   GEOM_OPT_MAX_CYCLES 400
   SCF_MAX_CYCLES 400
   METHOD   B3LYP
   BASIS   6-31G**
   PDB_PRINT 2
   SCF_CONVERGENCE 6
   THRESH 14
   SCF_PRINT 1
$end
$molecule
0 3
S 0.224066 -1.335310 -0.016174
S -2.713698 -0.986918 0.211152
C 0.658799 0.524359 -0.248081
C -0.272401 1.359188 0.520758
C 2.135575 0.743349 0.082121
H 0.480837 0.626730 -1.323207
H -0.039627 1.619427 1.549360
H -1.265557 1.570316 0.145915
H 2.414503 1.775828 -0.155486
H 2.327114 0.581405 1.147866
H 2.778458 0.069074 -0.488519
H 0.292731 -1.334589 1.329191
H -2.781097 -2.087861 -0.565896
$end
$scan
stre 2 4 3.300000 3.301000 0.100000
$end
