
$comment
	potential surface scanner
$end

$rem
   JOBTYPE  PES_SCAN
   UNRESTRICTED TRUE
   SYM_IGNORE  TRUE
   GEOM_OPT_MAX_CYCLES 400
   SCF_MAX_CYCLES 400
   METHOD   B3LYP
   BASIS   6-31G**
   PDB_PRINT 2
   SCF_CONVERGENCE 6
   THRESH 14
   SCF_PRINT 1
$end
$molecule
0 3
S 0.129462 -1.191962 -0.132537
S -3.875552 -1.976850 -0.307892
C 0.706424 0.630196 -0.206594
C -0.098033 1.446609 0.716941
C 2.215316 0.726212 0.017771
H 0.460730 0.867532 -1.247329
H 0.236602 1.600415 1.738716
H -1.116930 1.720261 0.467395
H 2.547851 1.757714 -0.143633
H 2.476865 0.446260 1.043592
H 2.761850 0.071284 -0.664540
H 0.365193 -1.368624 1.183359
H -2.570080 -1.604047 -0.276252
$end
$scan
stre 2 4 5.100000 5.101000 0.100000
$end
