
$comment
	potential surface scanner
$end

$rem
   JOBTYPE  PES_SCAN
   UNRESTRICTED TRUE
   SYM_IGNORE  TRUE
   GEOM_OPT_MAX_CYCLES 400
   SCF_MAX_CYCLES 400
   METHOD   B3LYP
   BASIS   6-31G**
   PDB_PRINT 2
   SCF_CONVERGENCE 6
   THRESH 14
   SCF_PRINT 1
$end
$molecule
0 3
S 0.100908 -1.164823 -0.134374
S -3.886874 -2.060671 -0.320843
C 0.708370 0.647842 -0.203921
C -0.079322 1.474791 0.724653
C 2.219256 0.717586 0.017012
H 0.464262 0.892745 -1.243260
H 0.259941 1.617322 1.746561
H -1.093650 1.767810 0.478573
H 2.569049 1.743195 -0.145248
H 2.477937 0.433259 1.042351
H 2.752713 0.053130 -0.666432
H 0.341527 -1.351384 1.179232
H -2.594418 -1.645801 -0.285307
$end
$scan
stre 2 4 5.200000 5.201000 0.100000
$end
