
$comment
	potential surface scanner
$end

$rem
   JOBTYPE  PES_SCAN
   UNRESTRICTED TRUE
   SYM_IGNORE  TRUE
   GEOM_OPT_MAX_CYCLES 400
   SCF_MAX_CYCLES 400
   METHOD   B3LYP
   BASIS   6-31G**
   PDB_PRINT 2
   SCF_CONVERGENCE 6
   THRESH 14
   SCF_PRINT 1
$end
$molecule
0 1
S 0.668711 -1.694746 0.237444
S -2.499606 0.041324 -0.229782
C 0.530413 0.084576 -0.263029
C -0.641379 0.799373 0.388569
C 1.838124 0.847375 -0.000793
H 0.355113 0.025391 -1.341213
H -0.657065 0.727237 1.475812
H -0.718158 1.840713 0.071585
H 1.768256 1.869399 -0.389573
H 2.051155 0.909811 1.071877
H 2.679734 0.347936 -0.486285
H 1.049828 -1.458050 1.509807
H -2.185424 -1.215340 0.144583
$end
$scan
stre 2 4 2.200000 2.201000 0.100000
$end
