
$comment
	potential surface scanner
$end

$rem
   JOBTYPE  PES_SCAN
   UNRESTRICTED TRUE
   SYM_IGNORE  TRUE
   GEOM_OPT_MAX_CYCLES 400
   SCF_MAX_CYCLES 400
   METHOD   B3LYP
   BASIS   6-31G**
   PDB_PRINT 2
   SCF_CONVERGENCE 6
   THRESH 14
   SCF_PRINT 1
$end
$molecule
0 3
S 0.333657 -1.366069 -0.206711
S -3.708248 -1.240458 -0.082456
C 0.694898 0.514483 -0.253364
C -0.253978 1.221770 0.621431
C 2.166416 0.785686 0.055033
H 0.481815 0.723457 -1.307295
H 0.006059 1.417949 1.657551
H -1.286057 1.359274 0.319311
H 2.382859 1.851008 -0.082853
H 2.403355 0.527542 1.092547
H 2.822734 0.207635 -0.599319
H 0.551188 -1.522023 1.115237
H -2.354999 -1.355258 -0.140115
$end
$scan
stre 2 4 4.200000 4.201000 0.100000
$end
