
$comment
	potential surface scanner
$end

$rem
   JOBTYPE  PES_SCAN
   UNRESTRICTED TRUE
   SYM_IGNORE  TRUE
   GEOM_OPT_MAX_CYCLES 400
   SCF_MAX_CYCLES 400
   METHOD   B3LYP
   BASIS   6-31G**
   PDB_PRINT 2
   SCF_CONVERGENCE 6
   THRESH 14
   SCF_PRINT 1
$end
$molecule
0 3
S 0.288901 -1.323933 -0.209746
S -3.763460 -1.403382 -0.102801
C 0.702246 0.545619 -0.249564
C -0.222986 1.275330 0.631736
C 2.182233 0.772755 0.054501
H 0.491777 0.765066 -1.301832
H 0.044547 1.457894 1.668396
H -1.250387 1.448642 0.332048
H 2.429380 1.831939 -0.079238
H 2.415377 0.502822 1.089767
H 2.819035 0.178935 -0.604973
H 0.508661 -1.493145 1.110191
H -2.405625 -1.433545 -0.149489
$end
$scan
stre 2 4 4.400000 4.401000 0.100000
$end
