
$comment
	potential surface scanner
$end

$rem
   JOBTYPE  PES_SCAN
   UNRESTRICTED TRUE
   SYM_IGNORE  TRUE
   GEOM_OPT_MAX_CYCLES 400
   SCF_MAX_CYCLES 400
   METHOD   B3LYP
   BASIS   6-31G**
   PDB_PRINT 2
   SCF_CONVERGENCE 6
   THRESH 14
   SCF_PRINT 1
$end
$molecule
0 1
S 0.671588 -1.707855 0.223000
S -2.378949 0.098916 -0.197510
C 0.519587 0.072202 -0.276517
C -0.688803 0.763177 0.361208
C 1.811708 0.847724 0.005181
H 0.358116 0.008903 -1.357168
H -0.641961 0.722099 1.452695
H -0.715155 1.815486 0.061875
H 1.733163 1.870506 -0.380718
H 2.008502 0.910381 1.081124
H 2.668579 0.363599 -0.468801
H 1.033181 -1.468185 1.500657
H -2.139856 -1.171954 0.183975
$end
$scan
stre 2 4 2.000000 2.001000 0.100000
$end
