
$comment
	potential surface scanner
$end

$rem
   JOBTYPE  PES_SCAN
   UNRESTRICTED TRUE
   SYM_IGNORE  TRUE
   GEOM_OPT_MAX_CYCLES 400
   SCF_MAX_CYCLES 400
   METHOD   B3LYP
   BASIS   6-31G**
   PDB_PRINT 2
   SCF_CONVERGENCE 6
   THRESH 14
   SCF_PRINT 1
$end
$molecule
0 1
Br 2.614551 0.286296 0.025845
C -0.654877 0.480238 0.006775
C 0.301557 -0.662127 0.002370
C -2.100847 -0.074193 -0.008028
H -0.503177 1.096240 0.897058
H -0.491740 1.112425 -0.870023
H 0.422193 -1.228546 -0.916014
H 0.410473 -1.245838 0.911350
H -2.810646 0.758144 -0.003957
H -2.291683 -0.675814 -0.902030
H -2.303007 -0.694225 0.870756
$end
$scan
stre 1 3 2.600000 2.601000 0.100000
$end
