
$comment
	potential surface scanner
$end

$rem
   JOBTYPE  PES_SCAN
   UNRESTRICTED TRUE
   SYM_IGNORE  TRUE
   GEOM_OPT_MAX_CYCLES 400
   SCF_MAX_CYCLES 400
   METHOD   B3LYP
   BASIS   6-31G**
   PDB_PRINT 2
   SCF_CONVERGENCE 6
   THRESH 14
   SCF_PRINT 1
$end
$molecule
0 3
Br 3.909442 -0.106527 0.009242
C -0.885037 0.493740 0.007466
C 0.230273 -0.498582 0.006261
C -2.287146 -0.161006 -0.008585
H -0.811900 1.137221 0.893972
H -0.799515 1.153326 -0.866049
H 0.584211 -0.935473 -0.922096
H 0.576429 -0.947148 0.931949
H -3.074590 0.600967 -0.006765
H -2.418563 -0.783413 -0.899496
H -2.430819 -0.800505 0.868202
$end
$scan
stre 1 3 3.600000 3.601000 0.100000
$end
