
$comment
	potential surface scanner
$end

$rem
   JOBTYPE  PES_SCAN
   UNRESTRICTED TRUE
   SYM_IGNORE  TRUE
   GEOM_OPT_MAX_CYCLES 400
   SCF_MAX_CYCLES 400
   METHOD   B3LYP
   BASIS   6-31G**
   PDB_PRINT 2
   SCF_CONVERGENCE 6
   THRESH 14
   SCF_PRINT 1
$end
$molecule
0 1
Br 2.690891 0.301888 0.021559
C -0.661452 0.476741 0.008086
C 0.280054 -0.671531 0.003695
C -2.111970 -0.074265 -0.008876
H -0.509924 1.090097 0.899967
H -0.496891 1.107008 -0.869569
H 0.424476 -1.228403 -0.916732
H 0.414719 -1.244524 0.915693
H -2.816054 0.762802 -0.005037
H -2.303582 -0.673580 -0.903996
H -2.317470 -0.693632 0.869311
$end
$scan
stre 1 3 2.700000 2.701000 0.100000
$end
