
$comment
	potential surface scanner
$end

$rem
   JOBTYPE  PES_SCAN
   UNRESTRICTED TRUE
   SYM_IGNORE  TRUE
   GEOM_OPT_MAX_CYCLES 400
   SCF_MAX_CYCLES 400
   METHOD   B3LYP
   BASIS   6-31G**
   PDB_PRINT 2
   SCF_CONVERGENCE 6
   THRESH 14
   SCF_PRINT 1
$end
$molecule
0 3
Br 3.109836 0.508981 -0.004315
C -0.728036 0.405230 0.010445
C 0.261204 -0.713774 0.008822
C -2.198391 -0.075287 -0.008452
H -0.580067 1.034408 0.898181
H -0.561634 1.053630 -0.859792
H 0.516255 -1.218606 -0.919296
H 0.486571 -1.248673 0.927487
H -2.888526 0.776067 -0.003847
H -2.404752 -0.674063 -0.901531
H -2.419676 -0.695311 0.866402
$end
$scan
stre 1 3 3.000000 3.001000 0.100000
$end
