
$comment
	potential surface scanner
$end

$rem
   JOBTYPE  PES_SCAN
   UNRESTRICTED TRUE
   SYM_IGNORE  TRUE
   GEOM_OPT_MAX_CYCLES 400
   SCF_MAX_CYCLES 400
   METHOD   B3LYP
   BASIS   6-31G**
   PDB_PRINT 2
   SCF_CONVERGENCE 6
   THRESH 14
   SCF_PRINT 1
$end
$molecule
0 3
Br 5.545748 -1.035465 -0.003887
C -1.183737 0.628299 0.014307
C 0.129282 -0.080655 0.011393
C -2.399129 -0.329618 -0.014054
H -1.263975 1.265179 0.904677
H -1.250096 1.296086 -0.854896
H 0.560313 -0.443925 -0.916656
H 0.573938 -0.431835 0.937490
H -3.338741 0.234079 -0.014755
H -2.380921 -0.959954 -0.908840
H -2.399884 -0.989591 0.859319
$end
$scan
stre 1 3 5.400000 5.401000 0.100000
$end
