
$comment
	potential surface scanner
$end

$rem
   JOBTYPE  PES_SCAN
   UNRESTRICTED TRUE
   SYM_IGNORE  TRUE
   GEOM_OPT_MAX_CYCLES 400
   SCF_MAX_CYCLES 400
   METHOD   B3LYP
   BASIS   6-31G**
   PDB_PRINT 2
   SCF_CONVERGENCE 6
   THRESH 14
   SCF_PRINT 1
$end
$molecule
0 3
Br 3.111207 0.639200 0.036332
C -0.718834 0.377420 -0.000735
C 0.237976 -0.768956 -0.004201
C -2.203084 -0.059163 -0.000551
H -0.544126 1.008103 0.881461
H -0.543307 1.013338 -0.878355
H 0.516123 -1.253144 -0.935144
H 0.473285 -1.293645 0.916618
H -2.866777 0.812905 0.004536
H -2.436183 -0.657695 -0.887076
H -2.433495 -0.665762 0.881219
$end
$scan
stre 1 3 3.100000 3.101000 0.100000
$end
