
$comment
	potential surface scanner
$end

$rem
   JOBTYPE  PES_SCAN
   UNRESTRICTED TRUE
   SYM_IGNORE  TRUE
   GEOM_OPT_MAX_CYCLES 400
   SCF_MAX_CYCLES 400
   METHOD   B3LYP
   BASIS   6-31G**
   PDB_PRINT 2
   SCF_CONVERGENCE 6
   THRESH 14
   SCF_PRINT 1
$end
$molecule
0 1
Br 2.834035 0.361740 0.021321
C -0.673311 0.459276 0.008177
C 0.243047 -0.699611 0.003588
C -2.137028 -0.070089 -0.009525
H -0.516854 1.067580 0.902424
H -0.502536 1.085446 -0.871019
H 0.432576 -1.237283 -0.919584
H 0.425958 -1.250680 0.920192
H -2.820109 0.784051 -0.004722
H -2.339445 -0.663357 -0.905711
H -2.353538 -0.684473 0.868960
$end
$scan
stre 1 3 2.900000 2.901000 0.100000
$end
