
$comment
	potential surface scanner
$end

$rem
   JOBTYPE  PES_SCAN
   UNRESTRICTED TRUE
   SYM_IGNORE  TRUE
   GEOM_OPT_MAX_CYCLES 400
   SCF_MAX_CYCLES 400
   METHOD   B3LYP
   BASIS   6-31G**
   PDB_PRINT 2
   SCF_CONVERGENCE 6
   THRESH 14
   SCF_PRINT 1
$end
$molecule
0 3
Br 4.350056 -0.021343 0.012460
C -0.918200 0.484250 0.007891
C 0.180481 -0.525911 0.005105
C -2.329684 -0.150261 -0.008993
H -0.834369 1.124942 0.895186
H -0.822319 1.142853 -0.865163
H 0.510326 -0.982906 -0.923300
H 0.514547 -0.984903 0.930940
H -3.105248 0.623593 -0.006891
H -2.469877 -0.769754 -0.900516
H -2.482927 -0.787959 0.867381
$end
$scan
stre 1 3 4.100000 4.101000 0.100000
$end
