
$comment
	potential surface scanner
$end

$rem
   JOBTYPE  PES_SCAN
   UNRESTRICTED TRUE
   SYM_IGNORE  TRUE
   GEOM_OPT_MAX_CYCLES 400
   SCF_MAX_CYCLES 400
   METHOD   B3LYP
   BASIS   6-31G**
   PDB_PRINT 2
   SCF_CONVERGENCE 6
   THRESH 14
   SCF_PRINT 1
$end
$molecule
0 3
Br 5.039604 -0.748375 -0.009942
C -1.095259 0.591007 0.014873
C 0.170537 -0.199252 0.015571
C -2.368383 -0.288149 -0.016248
H -1.137057 1.232408 0.904646
H -1.116874 1.261307 -0.854852
H 0.576659 -0.594318 -0.910631
H 0.595350 -0.569203 0.943559
H -3.271046 0.333012 -0.018959
H -2.388208 -0.918850 -0.910841
H -2.412527 -0.946986 0.856923
$end
$scan
stre 1 3 4.800000 4.801000 0.100000
$end
