
$comment
	potential surface scanner
$end

$rem
   JOBTYPE  PES_SCAN
   UNRESTRICTED TRUE
   SYM_IGNORE  TRUE
   GEOM_OPT_MAX_CYCLES 400
   SCF_MAX_CYCLES 400
   METHOD   B3LYP
   BASIS   6-31G**
   PDB_PRINT 2
   SCF_CONVERGENCE 6
   THRESH 14
   SCF_PRINT 1
$end
$molecule
0 1
Br 2.342750 0.186759 0.030646
C -0.631423 0.502338 0.004926
C 0.398772 -0.607034 0.001586
C -2.054369 -0.080546 -0.006676
H -0.490436 1.129686 0.890812
H -0.480892 1.144391 -0.868779
H 0.394456 -1.214312 -0.902099
H 0.377812 -1.233707 0.891650
H -2.795430 0.724382 -0.001772
H -2.230926 -0.691421 -0.898364
H -2.237517 -0.707937 0.872171
$end
$scan
stre 1 3 2.200000 2.201000 0.100000
$end
