
$comment
	potential surface scanner
$end

$rem
   JOBTYPE  PES_SCAN
   UNRESTRICTED TRUE
   SYM_IGNORE  TRUE
   GEOM_OPT_MAX_CYCLES 400
   SCF_MAX_CYCLES 400
   METHOD   B3LYP
   BASIS   6-31G**
   PDB_PRINT 2
   SCF_CONVERGENCE 6
   THRESH 14
   SCF_PRINT 1
$end
$molecule
0 3
Br 4.865641 -0.634880 -0.008217
C -1.062787 0.573660 0.014255
C 0.181478 -0.250088 0.015300
C -2.359431 -0.270467 -0.016115
H -1.087359 1.216529 0.903705
H -1.066693 1.244172 -0.855664
H 0.581814 -0.650015 -0.911049
H 0.602516 -0.622658 0.943640
H -3.245015 0.374827 -0.018096
H -2.396878 -0.900458 -0.910642
H -2.420493 -0.928022 0.856982
$end
$scan
stre 1 3 4.600000 4.601000 0.100000
$end
