
$comment
	potential surface scanner
$end

$rem
   JOBTYPE  PES_SCAN
   UNRESTRICTED TRUE
   SYM_IGNORE  TRUE
   GEOM_OPT_MAX_CYCLES 400
   SCF_MAX_CYCLES 400
   METHOD   B3LYP
   BASIS   6-31G**
   PDB_PRINT 2
   SCF_CONVERGENCE 6
   THRESH 14
   SCF_PRINT 1
$end
$molecule
0 3
Br 4.183711 -0.103385 0.009540
C -0.913307 0.493810 0.007903
C 0.203086 -0.496595 0.006251
C -2.314472 -0.163227 -0.009058
H -0.840786 1.136349 0.894944
H -0.828127 1.153584 -0.865384
H 0.554936 -0.935688 -0.922634
H 0.552038 -0.942930 0.932719
H -3.101762 0.598628 -0.007228
H -2.444767 -0.785002 -0.900444
H -2.457765 -0.802943 0.867491
$end
$scan
stre 1 3 3.900000 3.901000 0.100000
$end
