
$comment
	potential surface scanner
$end

$rem
   JOBTYPE  PES_SCAN
   UNRESTRICTED TRUE
   SYM_IGNORE  TRUE
   GEOM_OPT_MAX_CYCLES 400
   SCF_MAX_CYCLES 400
   METHOD   B3LYP
   BASIS   6-31G**
   PDB_PRINT 2
   SCF_CONVERGENCE 6
   THRESH 14
   SCF_PRINT 1
$end
$molecule
0 1
Br 2.480946 0.225680 0.023009
C -0.643744 0.495826 0.007387
C 0.346732 -0.631495 0.003472
C -2.076154 -0.078245 -0.008036
H -0.499040 1.117293 0.895766
H -0.487330 1.133250 -0.867582
H 0.405897 -1.220084 -0.908253
H 0.394410 -1.237348 0.904500
H -2.806073 0.736614 -0.004331
H -2.255431 -0.684950 -0.901586
H -2.267416 -0.703942 0.869756
$end
$scan
stre 1 3 2.400000 2.401000 0.100000
$end
