
$comment
	potential surface scanner
$end

$rem
   JOBTYPE  PES_SCAN
   UNRESTRICTED TRUE
   SYM_IGNORE  TRUE
   GEOM_OPT_MAX_CYCLES 400
   SCF_MAX_CYCLES 400
   METHOD   B3LYP
   BASIS   6-31G**
   PDB_PRINT 2
   SCF_CONVERGENCE 6
   THRESH 14
   SCF_PRINT 1
$end
$molecule
0 3
Br 2.482337 -0.138383 -0.861404
C -0.720161 0.512088 0.201375
C 0.407148 -0.460489 0.300422
C -2.094852 -0.118226 -0.118986
H -0.790481 1.042037 1.162046
H -0.486041 1.266898 -0.560369
H 0.661506 -0.986087 -0.655531
H 0.462606 -1.138151 1.152569
H -2.871762 0.652401 -0.163051
H -2.074445 -0.630651 -1.086307
H -2.383070 -0.848830 0.643343
$end
$scan
stre 1 3 2.300000 2.301000 0.100000
$end
