
$comment
	potential surface scanner
$end

$rem
   JOBTYPE  PES_SCAN
   UNRESTRICTED TRUE
   SYM_IGNORE  TRUE
   GEOM_OPT_MAX_CYCLES 400
   SCF_MAX_CYCLES 400
   METHOD   B3LYP
   BASIS   6-31G**
   PDB_PRINT 2
   SCF_CONVERGENCE 6
   THRESH 14
   SCF_PRINT 1
$end
$molecule
0 3
Br 2.753688 0.333586 0.009207
C -0.694736 0.448571 0.008632
C 0.340704 -0.634653 0.004479
C -2.143549 -0.087409 -0.007065
H -0.565513 1.085306 0.894285
H -0.553496 1.103835 -0.861544
H 0.500031 -1.200418 -0.914151
H 0.491238 -1.217336 0.913649
H -2.870597 0.733170 -0.002105
H -2.326784 -0.695537 -0.899216
H -2.338201 -0.716510 0.867933
$end
$scan
stre 1 3 2.500000 2.501000 0.100000
$end
