
$comment
	potential surface scanner
$end

$rem
   JOBTYPE  PES_SCAN
   UNRESTRICTED TRUE
   SYM_IGNORE  TRUE
   GEOM_OPT_MAX_CYCLES 400
   SCF_MAX_CYCLES 400
   METHOD   B3LYP
   BASIS   6-31G**
   PDB_PRINT 2
   SCF_CONVERGENCE 6
   THRESH 14
   SCF_PRINT 1
$end
$molecule
0 3
Br 2.672069 0.322938 0.006380
C -0.686037 0.451504 0.009082
C 0.358770 -0.625032 0.005741
C -2.132449 -0.087773 -0.007235
H -0.558946 1.089835 0.894239
H -0.545904 1.108582 -0.860226
H 0.499628 -1.202878 -0.910000
H 0.488127 -1.221779 0.910394
H -2.861971 0.730824 -0.002797
H -2.314169 -0.696535 -0.899307
H -2.326333 -0.717080 0.867835
$end
$scan
stre 1 3 2.400000 2.401000 0.100000
$end
