
$comment
	potential surface scanner
$end

$rem
   JOBTYPE  PES_SCAN
   UNRESTRICTED TRUE
   SYM_IGNORE  TRUE
   GEOM_OPT_MAX_CYCLES 400
   SCF_MAX_CYCLES 400
   METHOD   B3LYP
   BASIS   6-31G**
   PDB_PRINT 2
   SCF_CONVERGENCE 6
   THRESH 14
   SCF_PRINT 1
$end
$molecule
0 1
Br 2.913049 0.382554 0.019913
C -0.679328 0.454374 0.008727
C 0.226248 -0.708706 0.004101
C -2.147802 -0.069758 -0.009834
H -0.523155 1.060842 0.904184
H -0.508205 1.078824 -0.871543
H 0.431222 -1.238864 -0.920279
H 0.424546 -1.252570 0.921981
H -2.824241 0.789576 -0.005370
H -2.352105 -0.661203 -0.906539
H -2.367436 -0.682470 0.868761
$end
$scan
stre 1 3 3.000000 3.001000 0.100000
$end
