
$comment
	potential surface scanner
$end

$rem
   JOBTYPE  PES_SCAN
   UNRESTRICTED TRUE
   SYM_IGNORE  TRUE
   GEOM_OPT_MAX_CYCLES 400
   SCF_MAX_CYCLES 400
   METHOD   B3LYP
   BASIS   6-31G**
   PDB_PRINT 2
   SCF_CONVERGENCE 6
   THRESH 14
   SCF_PRINT 1
$end
$molecule
0 3
Br 5.628354 -1.080762 -0.003744
C -1.197986 0.633272 0.014358
C 0.121550 -0.063464 0.011253
C -2.404561 -0.335823 -0.013988
H -1.284078 1.269290 0.904797
H -1.270685 1.300453 -0.854788
H 0.557818 -0.419813 -0.916990
H 0.571261 -0.408160 0.937304
H -3.349302 0.219238 -0.014431
H -2.380576 -0.965718 -0.908930
H -2.398997 -0.995913 0.859257
$end
$scan
stre 1 3 5.500000 5.501000 0.100000
$end
