
$comment
	potential surface scanner
$end

$rem
   JOBTYPE  PES_SCAN
   UNRESTRICTED TRUE
   SYM_IGNORE  TRUE
   GEOM_OPT_MAX_CYCLES 400
   SCF_MAX_CYCLES 400
   METHOD   B3LYP
   BASIS   6-31G**
   PDB_PRINT 2
   SCF_CONVERGENCE 6
   THRESH 14
   SCF_PRINT 1
$end
$molecule
0 3
Br 3.046422 0.461838 0.009895
C -0.722908 0.416872 0.007864
C 0.277652 -0.693100 0.004217
C -2.187743 -0.079757 -0.006218
H -0.578224 1.049218 0.893846
H -0.566313 1.065609 -0.863944
H 0.512389 -1.209900 -0.923174
H 0.488943 -1.237947 0.921019
H -2.888105 0.763290 -0.002446
H -2.389072 -0.683172 -0.897410
H -2.400258 -0.700348 0.870455
$end
$scan
stre 1 3 2.900000 2.901000 0.100000
$end
