
$comment
	potential surface scanner
$end

$rem
   JOBTYPE  PES_SCAN
   UNRESTRICTED TRUE
   SYM_IGNORE  TRUE
   GEOM_OPT_MAX_CYCLES 400
   SCF_MAX_CYCLES 400
   METHOD   B3LYP
   BASIS   6-31G**
   PDB_PRINT 2
   SCF_CONVERGENCE 6
   THRESH 14
   SCF_PRINT 1
$end
$molecule
0 1
Br 2.762602 0.330625 0.014376
C -0.667629 0.468311 0.010032
C 0.261029 -0.685276 0.005747
C -2.124593 -0.072386 -0.010820
H -0.515320 1.078076 0.904089
H -0.498361 1.097716 -0.867245
H 0.426355 -1.234733 -0.915425
H 0.424097 -1.244737 0.921269
H -2.818520 0.773043 -0.005973
H -2.319903 -0.667039 -0.907942
H -2.336960 -0.690999 0.865993
$end
$scan
stre 1 3 2.800000 2.801000 0.100000
$end
