
$comment
	potential surface scanner
$end

$rem
   JOBTYPE  PES_SCAN
   UNRESTRICTED TRUE
   SYM_IGNORE  TRUE
   GEOM_OPT_MAX_CYCLES 400
   SCF_MAX_CYCLES 400
   METHOD   B3LYP
   BASIS   6-31G**
   PDB_PRINT 2
   SCF_CONVERGENCE 6
   THRESH 14
   SCF_PRINT 1
$end
$molecule
0 3
Br 3.071967 0.425581 0.004723
C -0.693346 0.441985 0.010526
C 0.194526 -0.727817 0.007268
C -2.170793 -0.067081 -0.010143
H -0.534220 1.045681 0.907254
H -0.516810 1.062232 -0.871733
H 0.423212 -1.248567 -0.917175
H 0.429162 -1.251326 0.928590
H -2.833008 0.803175 -0.006763
H -2.379911 -0.655459 -0.907324
H -2.397979 -0.675806 0.868876
$end
$scan
stre 1 3 5.700000 5.701000 0.100000
$end
