
$comment
	potential surface scanner
$end

$rem
   JOBTYPE  PES_SCAN
   UNRESTRICTED TRUE
   SYM_IGNORE  TRUE
   GEOM_OPT_MAX_CYCLES 400
   SCF_MAX_CYCLES 400
   METHOD   B3LYP
   BASIS   6-31G**
   PDB_PRINT 2
   SCF_CONVERGENCE 6
   THRESH 14
   SCF_PRINT 1
$end
$molecule
0 3
Br 5.462850 -0.988935 -0.004066
C -1.169291 0.622850 0.014251
C 0.136729 -0.098880 0.011579
C -2.393942 -0.323098 -0.014136
H -1.243338 1.260609 0.904531
H -1.228921 1.291191 -0.855032
H 0.563074 -0.468406 -0.916195
H 0.576908 -0.455740 0.937676
H -3.328021 0.249725 -0.015033
H -2.381903 -0.953777 -0.908802
H -2.401348 -0.982940 0.859322
$end
$scan
stre 1 3 5.300000 5.301000 0.100000
$end
