
$comment
potential surface scanner
$end

$rem
JOBTYPE  PES_SCAN
UNRESTRICTED TRUE
SYM_IGNORE  TRUE
GEOM_OPT_MAX_CYCLES 400
SCF_MAX_CYCLES 400
METHOD   B3LYP
BASIS   6-31G**
PDB_PRINT 2
SCF_CONVERGENCE 6
THRESH 14
SCF_PRINT 1
$end
$molecule
0 1
Br 3.070271 0.431293 0.016353
C -0.692392 0.441529 0.009940
C 0.195494 -0.728679 0.005310
C -2.170218 -0.067420 -0.010763
H -0.533996 1.044713 0.907295
H -0.517017 1.063520 -0.871353
H 0.427704 -1.245390 -0.920253
H 0.422551 -1.258133 0.924947
H -2.832288 0.802911 -0.006662
H -2.379735 -0.654918 -0.908437
H -2.397582 -0.676827 0.867725
$end
$scan
stre 1 3 3.200000 3.201000 0.100000
$end
