
$comment
	potential surface scanner
$end

$rem
   JOBTYPE  PES_SCAN
   UNRESTRICTED TRUE
   SYM_IGNORE  TRUE
   GEOM_OPT_MAX_CYCLES 400
   SCF_MAX_CYCLES 400
   METHOD   B3LYP
   BASIS   6-31G**
   PDB_PRINT 2
   SCF_CONVERGENCE 6
   THRESH 14
   SCF_PRINT 1
$end
$molecule
0 1
Br 2.218383 0.121763 0.026508
C -0.619525 0.516749 0.005802
C 0.450408 -0.573747 0.003417
C -2.029406 -0.086911 -0.006874
H -0.487620 1.149641 0.890367
H -0.477457 1.163548 -0.867045
H 0.368280 -1.199157 -0.887863
H 0.352828 -1.217657 0.879789
H -2.789266 0.700321 -0.001701
H -2.193193 -0.701644 -0.898852
H -2.200633 -0.720307 0.870552
$end
$scan
stre 1 3 2.000000 2.001000 0.100000
$end
