
$comment
	potential surface scanner
$end

$rem
   JOBTYPE  PES_SCAN
   UNRESTRICTED TRUE
   SYM_IGNORE  TRUE
   GEOM_OPT_MAX_CYCLES 400
   SCF_MAX_CYCLES 400
   METHOD   B3LYP
   BASIS   6-31G**
   PDB_PRINT 2
   SCF_CONVERGENCE 6
   THRESH 14
   SCF_PRINT 1
$end
$molecule
0 3
Br 2.944927 0.468274 0.011831
C -0.710387 0.416568 0.007659
C 0.288626 -0.695341 0.003497
C -2.176017 -0.076190 -0.006319
H -0.563488 1.048724 0.893451
H -0.552078 1.065624 -0.863710
H 0.511081 -1.222113 -0.921550
H 0.494025 -1.245220 0.918881
H -2.875047 0.768081 -0.001782
H -2.379097 -0.678737 -0.897760
H -2.389761 -0.697066 0.869904
$end
$scan
stre 1 3 2.800000 2.801000 0.100000
$end
