
$comment
	potential surface scanner
$end

$rem
   JOBTYPE  PES_SCAN
   UNRESTRICTED TRUE
   SYM_IGNORE  TRUE
   GEOM_OPT_MAX_CYCLES 400
   SCF_MAX_CYCLES 400
   METHOD   B3LYP
   BASIS   6-31G**
   PDB_PRINT 2
   SCF_CONVERGENCE 6
   THRESH 14
   SCF_PRINT 1
$end
$molecule
0 3
Br 2.816617 0.377146 0.013339
C -0.700154 0.437167 0.007683
C 0.322221 -0.656241 0.003063
C -2.155343 -0.083336 -0.006437
H -0.564117 1.072516 0.893136
H -0.553529 1.089869 -0.863326
H 0.505922 -1.206955 -0.918601
H 0.496025 -1.224939 0.915533
H -2.872012 0.746186 -0.001337
H -2.346345 -0.689509 -0.898198
H -2.356500 -0.709298 0.869247
$end
$scan
stre 1 3 2.600000 2.601000 0.100000
$end
