
$comment
	potential surface scanner
$end

$rem
   JOBTYPE  PES_SCAN
   UNRESTRICTED TRUE
   SYM_IGNORE  TRUE
   GEOM_OPT_MAX_CYCLES 400
   SCF_MAX_CYCLES 400
   METHOD   B3LYP
   BASIS   6-31G**
   PDB_PRINT 2
   SCF_CONVERGENCE 6
   THRESH 14
   SCF_PRINT 1
$end
$molecule
0 3
Br 4.953221 -0.700420 -0.010022
C -1.080220 0.585401 0.014707
C 0.177645 -0.217501 0.015777
C -2.361852 -0.281282 -0.016378
H -1.115763 1.227286 0.904412
H -1.095036 1.255794 -0.855098
H 0.577081 -0.619944 -0.910170
H 0.596352 -0.593712 0.944016
H -3.258529 0.348495 -0.019053
H -2.387834 -0.911865 -0.910905
H -2.412270 -0.939652 0.856812
$end
$scan
stre 1 3 4.700000 4.701000 0.100000
$end
