
$comment
	potential surface scanner
$end

$rem
   JOBTYPE  PES_SCAN
   UNRESTRICTED TRUE
   SYM_IGNORE  TRUE
   GEOM_OPT_MAX_CYCLES 400
   SCF_MAX_CYCLES 400
   METHOD   B3LYP
   BASIS   6-31G**
   PDB_PRINT 2
   SCF_CONVERGENCE 6
   THRESH 14
   SCF_PRINT 1
$end
$molecule
0 1
Br 2.541235 0.268059 0.026612
C -0.648675 0.484037 0.006313
C 0.324437 -0.651291 0.002092
C -2.089894 -0.074524 -0.007881
H -0.498395 1.102286 0.895606
H -0.487029 1.118705 -0.869306
H 0.418212 -1.228503 -0.913242
H 0.406370 -1.245197 0.907826
H -2.805660 0.752795 -0.003382
H -2.278854 -0.677781 -0.901415
H -2.288950 -0.695986 0.870879
$end
$scan
stre 1 3 2.500000 2.501000 0.100000
$end
