
$comment
	potential surface scanner
$end

$rem
   JOBTYPE  PES_SCAN
   UNRESTRICTED TRUE
   SYM_IGNORE  TRUE
   GEOM_OPT_MAX_CYCLES 400
   SCF_MAX_CYCLES 400
   METHOD   B3LYP
   BASIS   6-31G**
   PDB_PRINT 2
   SCF_CONVERGENCE 6
   THRESH 14
   SCF_PRINT 1
$end
$molecule
0 3
Br 5.211537 -0.834464 -0.008175
C -1.123627 0.599416 0.014768
C 0.155156 -0.169249 0.014405
C -2.382773 -0.299809 -0.015547
H -1.175526 1.240120 0.904545
H -1.157099 1.269466 -0.854773
H 0.576264 -0.545747 -0.912507
H 0.593038 -0.524871 0.941607
H -3.294793 0.307501 -0.017729
H -2.393225 -0.930612 -0.910187
H -2.416157 -0.959152 0.857690
$end
$scan
stre 1 3 5.000000 5.001000 0.100000
$end
