
$comment
	potential surface scanner
$end

$rem
   JOBTYPE  PES_SCAN
   UNRESTRICTED TRUE
   SYM_IGNORE  TRUE
   GEOM_OPT_MAX_CYCLES 400
   SCF_MAX_CYCLES 400
   METHOD   B3LYP
   BASIS   6-31G**
   PDB_PRINT 2
   SCF_CONVERGENCE 6
   THRESH 14
   SCF_PRINT 1
$end
$molecule
0 1
Br 2.413781 0.200955 0.025433
C -0.637745 0.501200 0.006731
C 0.371870 -0.617640 0.003030
C -2.064396 -0.079968 -0.007387
H -0.495706 1.125841 0.893798
H -0.485106 1.140768 -0.867843
H 0.398321 -1.215511 -0.905191
H 0.384616 -1.234516 0.898740
H -2.801960 0.728018 -0.003752
H -2.240143 -0.689339 -0.900098
H -2.250735 -0.707209 0.870640
$end
$scan
stre 1 3 2.300000 2.301000 0.100000
$end
