
$comment
	potential surface scanner
$end

$rem
   JOBTYPE  PES_SCAN
   UNRESTRICTED TRUE
   SYM_IGNORE  TRUE
   GEOM_OPT_MAX_CYCLES 400
   SCF_MAX_CYCLES 400
   METHOD   B3LYP
   BASIS   6-31G**
   PDB_PRINT 2
   SCF_CONVERGENCE 6
   THRESH 14
   SCF_PRINT 1
$end
$molecule
0 3
Br 5.711025 -1.124295 -0.003557
C -1.211981 0.637464 0.014383
C 0.113635 -0.047716 0.011147
C -2.410433 -0.341611 -0.013924
H -1.303482 1.272877 0.904742
H -1.290489 1.304184 -0.854618
H 0.555733 -0.396200 -0.917250
H 0.569054 -0.384986 0.937067
H -3.359669 0.205712 -0.013977
H -2.381433 -0.970995 -0.909062
H -2.399161 -1.001835 0.859147
$end
$scan
stre 1 3 5.600000 5.601000 0.100000
$end
