
$comment
	potential surface scanner
$end

$rem
   JOBTYPE  PES_SCAN
   UNRESTRICTED TRUE
   SYM_IGNORE  TRUE
   GEOM_OPT_MAX_CYCLES 400
   SCF_MAX_CYCLES 400
   METHOD   B3LYP
   BASIS   6-31G**
   PDB_PRINT 2
   SCF_CONVERGENCE 6
   THRESH 14
   SCF_PRINT 1
$end
$molecule
0 3
Br 4.516439 0.033375 0.017201
C -0.928319 0.473346 0.007180
C 0.155678 -0.552776 0.003365
C -2.348967 -0.140469 -0.008448
H -0.834572 1.113088 0.894167
H -0.824066 1.130621 -0.865977
H 0.484400 -1.008894 -0.925749
H 0.495137 -1.006278 0.929876
H -3.113355 0.644466 -0.004823
H -2.499204 -0.757220 -0.900261
H -2.510382 -0.776658 0.867568
$end
$scan
stre 1 3 4.300000 4.301000 0.100000
$end
