
$comment
	potential surface scanner
$end

$rem
   JOBTYPE  PES_SCAN
   UNRESTRICTED TRUE
   SYM_IGNORE  TRUE
   GEOM_OPT_MAX_CYCLES 400
   SCF_MAX_CYCLES 400
   METHOD   B3LYP
   BASIS   6-31G**
   PDB_PRINT 2
   SCF_CONVERGENCE 6
   THRESH 14
   SCF_PRINT 1
$end
$molecule
0 1
Br 2.283253 0.146735 0.024699
C -0.625731 0.512484 0.006514
C 0.423188 -0.587915 0.003631
C -2.040631 -0.084433 -0.007218
H -0.490708 1.142830 0.891807
H -0.480143 1.157196 -0.866668
H 0.377809 -1.205597 -0.893542
H 0.363978 -1.223756 0.887163
H -2.794227 0.708754 -0.002746
H -2.207345 -0.697404 -0.899675
H -2.216645 -0.716295 0.870136
$end
$scan
stre 1 3 2.100000 2.101000 0.100000
$end
