
$comment
	potential surface scanner
$end

$rem
   JOBTYPE  PES_SCAN
   UNRESTRICTED TRUE
   SYM_IGNORE  TRUE
   GEOM_OPT_MAX_CYCLES 400
   SCF_MAX_CYCLES 400
   METHOD   B3LYP
   BASIS   6-31G**
   PDB_PRINT 2
   SCF_CONVERGENCE 6
   THRESH 14
   SCF_PRINT 1
$end
$molecule
0 3
Br 4.619221 0.007455 0.022657
C -0.941911 0.480133 0.006120
C 0.152105 -0.535131 0.000930
C -2.356662 -0.146957 -0.007302
H -0.852741 1.120922 0.892832
H -0.845012 1.138188 -0.867306
H 0.473192 -0.998179 -0.927477
H 0.486371 -0.995229 0.926071
H -3.128216 0.630942 -0.003473
H -2.502297 -0.765774 -0.898442
H -2.511261 -0.783770 0.869488
$end
$scan
stre 1 3 4.400000 4.401000 0.100000
$end
