
$comment
	potential surface scanner
$end

$rem
   JOBTYPE  PES_SCAN
   UNRESTRICTED TRUE
   SYM_IGNORE  TRUE
   GEOM_OPT_MAX_CYCLES 400
   SCF_MAX_CYCLES 400
   METHOD   B3LYP
   BASIS   6-31G**
   PDB_PRINT 2
   SCF_CONVERGENCE 6
   THRESH 14
   SCF_PRINT 1
$end
$molecule
0 3
Br 5.125625 -0.793022 -0.009260
C -1.109780 0.595778 0.014885
C 0.163030 -0.183053 0.015072
C -2.375310 -0.294303 -0.015950
H -1.156971 1.236737 0.904708
H -1.137606 1.265907 -0.854784
H 0.576378 -0.569721 -0.911464
H 0.594211 -0.546445 0.942720
H -3.283153 0.319259 -0.018489
H -2.389919 -0.925075 -0.910577
H -2.413710 -0.953461 0.857238
$end
$scan
stre 1 3 4.900000 4.901000 0.100000
$end
