
$comment
	potential surface scanner
$end

$rem
   JOBTYPE  PES_SCAN
   UNRESTRICTED TRUE
   SYM_IGNORE  TRUE
   GEOM_OPT_MAX_CYCLES 400
   SCF_MAX_CYCLES 400
   METHOD   B3LYP
   BASIS   6-31G**
   PDB_PRINT 2
   SCF_CONVERGENCE 6
   THRESH 14
   SCF_PRINT 1
$end
$molecule
0 3
Br 4.721292 -0.042909 0.023415
C -0.960516 0.485766 0.006022
C 0.145751 -0.516100 0.000760
C -2.368411 -0.156615 -0.007252
H -0.878830 1.127744 0.892644
H -0.871435 1.145023 -0.867388
H 0.481514 -0.967506 -0.928073
H 0.495070 -0.964204 0.926102
H -3.148005 0.613221 -0.003543
H -2.507460 -0.777042 -0.898290
H -2.516179 -0.794777 0.869701
$end
$scan
stre 1 3 4.500000 4.501000 0.100000
$end
