
$comment
	potential surface scanner
$end

$rem
   JOBTYPE  PES_SCAN
   UNRESTRICTED TRUE
   SYM_IGNORE  TRUE
   GEOM_OPT_MAX_CYCLES 400
   SCF_MAX_CYCLES 400
   METHOD   B3LYP
   BASIS   6-31G**
   PDB_PRINT 2
   SCF_CONVERGENCE 6
   THRESH 14
   SCF_PRINT 1
$end
$molecule
0 1
I -3.015300 0.558800 0.006500
I 3.015300 0.558700 0.006400
C 0.000000 0.205100 -0.018200
C -1.259500 -0.661300 0.002500
C 1.259500 -0.661200 0.002800
H -0.000100 0.879800 0.847600
H 0.000100 0.840500 -0.913200
H -1.276400 -1.320400 -0.872600
H -1.261700 -1.300300 0.892600
H 1.276400 -1.320600 -0.872200
H 1.261700 -1.300000 0.893100
$end
$scan
stre 2 5 2.100000 2.101000 0.100000
$end
