
$comment
	potential surface scanner
$end

$rem
   JOBTYPE  PES_SCAN
   UNRESTRICTED TRUE
   SYM_IGNORE  TRUE
   GEOM_OPT_MAX_CYCLES 400
   SCF_MAX_CYCLES 400
   METHOD   B3LYP
   BASIS   6-31G**
   PDB_PRINT 2
   SCF_CONVERGENCE 6
   THRESH 14
   SCF_PRINT 1
$end
$molecule
0 1
F -0.850441 -1.146417 0.998009
F 0.642344 -0.095360 -2.087937
C -0.592901 0.128782 0.629292
C 0.553568 0.696471 1.011276
C -1.683455 0.702193 -0.211322
H 0.834583 0.024683 -1.181870
H 0.763537 1.726869 0.752631
H 1.263975 0.156227 1.625673
H -2.648493 0.577921 0.289320
H -1.511566 1.762620 -0.403467
H -1.717453 0.176417 -1.169902
$end
$scan
stre 2 4 3.300000 3.301000 0.100000
$end
