
$comment
	potential surface scanner
$end

$rem
   JOBTYPE  PES_SCAN
   UNRESTRICTED TRUE
   SYM_IGNORE  TRUE
   GEOM_OPT_MAX_CYCLES 400
   SCF_MAX_CYCLES 400
   METHOD   B3LYP
   BASIS   6-31G**
   PDB_PRINT 2
   SCF_CONVERGENCE 6
   THRESH 14
   SCF_PRINT 1
$end
$molecule
0 3
F -0.283585 -1.062763 0.510329
F 0.854394 -0.496884 -1.801383
C -0.667854 0.275950 0.702078
C 0.423964 1.120424 1.158186
C -1.702306 0.681425 -0.287309
H 0.561695 -0.962452 -1.045868
H 1.185292 1.454338 0.451645
H 0.569083 1.352739 2.209290
H -2.552570 -0.008792 -0.269269
H -2.062458 1.690966 -0.075861
H -1.271951 0.665450 -1.300133
$end
$scan
stre 2 4 3.300000 3.301000 0.100000
$end
