
$comment
	potential surface scanner
$end

$rem
   JOBTYPE  PES_SCAN
   UNRESTRICTED TRUE
   SYM_IGNORE  TRUE
   GEOM_OPT_MAX_CYCLES 400
   SCF_MAX_CYCLES 400
   METHOD   B3LYP
   BASIS   6-31G**
   PDB_PRINT 2
   SCF_CONVERGENCE 6
   THRESH 14
   SCF_PRINT 1
$end
$molecule
0 1
F -0.571790 -1.284133 0.350032
F 2.301711 -0.053599 -0.693130
C -0.477384 -0.014752 -0.198629
C 0.607085 0.736354 0.466275
C -1.829754 0.692205 -0.034476
H -0.212809 -0.107703 -1.258125
H 0.786779 1.764892 0.177982
H 0.955070 0.411716 1.440267
H -2.080368 0.818930 1.022386
H -1.823484 1.671561 -0.520289
H -2.601354 0.074931 -0.500588
$end
$scan
stre 2 4 2.300000 2.301000 0.100000
$end
