
$comment
	potential surface scanner
$end

$rem
   JOBTYPE  PES_SCAN
   UNRESTRICTED TRUE
   SYM_IGNORE  TRUE
   GEOM_OPT_MAX_CYCLES 400
   SCF_MAX_CYCLES 400
   METHOD   B3LYP
   BASIS   6-31G**
   PDB_PRINT 2
   SCF_CONVERGENCE 6
   THRESH 14
   SCF_PRINT 1
$end
$molecule
0 3
F -0.391180 -1.104362 0.495201
F 1.032080 -0.317625 -1.556363
C -0.708768 0.255030 0.682013
C 0.450181 1.052633 1.048208
C -1.760463 0.686854 -0.277749
H 0.661170 -0.883986 -0.911436
H 1.184255 1.314195 0.287396
H 0.657205 1.317875 2.080973
H -2.615955 0.004113 -0.254092
H -2.105589 1.696750 -0.043291
H -1.349233 0.688926 -1.299154
$end
$scan
stre 2 4 2.900000 2.901000 0.100000
$end
