
$comment
	potential surface scanner
$end

$rem
   JOBTYPE  PES_SCAN
   UNRESTRICTED TRUE
   SYM_IGNORE  TRUE
   GEOM_OPT_MAX_CYCLES 400
   SCF_MAX_CYCLES 400
   METHOD   B3LYP
   BASIS   6-31G**
   PDB_PRINT 2
   SCF_CONVERGENCE 6
   THRESH 14
   SCF_PRINT 1
$end
$molecule
0 1
F -0.837082 -1.148366 0.995291
F 0.606582 -0.121609 -2.144936
C -0.584372 0.132284 0.639726
C 0.548229 0.708638 1.048382
C -1.667824 0.702503 -0.213358
H 0.805254 0.007957 -1.242373
H 0.755458 1.741181 0.796194
H 1.253543 0.170986 1.670771
H -2.638416 0.570978 0.274714
H -1.500134 1.764986 -0.398225
H -1.687540 0.180869 -1.174485
$end
$scan
stre 2 4 3.400000 3.401000 0.100000
$end
