
$comment
	potential surface scanner
$end

$rem
   JOBTYPE  PES_SCAN
   UNRESTRICTED TRUE
   SYM_IGNORE  TRUE
   GEOM_OPT_MAX_CYCLES 400
   SCF_MAX_CYCLES 400
   METHOD   B3LYP
   BASIS   6-31G**
   PDB_PRINT 2
   SCF_CONVERGENCE 6
   THRESH 14
   SCF_PRINT 1
$end
$molecule
0 3
F -0.215677 -1.038347 0.505884
F 0.742236 -0.600713 -1.914145
C -0.637199 0.287541 0.703885
C 0.413426 1.153464 1.212315
C -1.667876 0.679679 -0.294516
H 0.503523 -1.004926 -1.106093
H 1.184801 1.539424 0.543742
H 0.515661 1.364995 2.273098
H -2.512316 -0.018212 -0.278795
H -2.039290 1.686143 -0.088317
H -1.233586 0.661353 -1.305354
$end
$scan
stre 2 4 3.500000 3.501000 0.100000
$end
