
$comment
	potential surface scanner
$end

$rem
   JOBTYPE  PES_SCAN
   UNRESTRICTED TRUE
   SYM_IGNORE  TRUE
   GEOM_OPT_MAX_CYCLES 400
   SCF_MAX_CYCLES 400
   METHOD   B3LYP
   BASIS   6-31G**
   PDB_PRINT 2
   SCF_CONVERGENCE 6
   THRESH 14
   SCF_PRINT 1
$end
$molecule
0 3
F -0.431090 -1.125886 0.470159
F 1.099626 -0.248328 -1.424385
C -0.716157 0.242002 0.657806
C 0.467258 1.016989 0.992034
C -1.784160 0.690422 -0.275332
H 0.705916 -0.861429 -0.837980
H 1.179032 1.292386 0.218345
H 0.688639 1.287148 2.021130
H -2.645278 0.015509 -0.239367
H -2.114543 1.701546 -0.024969
H -1.395543 0.700044 -1.305733
$end
$scan
stre 2 4 2.700000 2.701000 0.100000
$end
