
$comment
	potential surface scanner
$end

$rem
   JOBTYPE  PES_SCAN
   UNRESTRICTED TRUE
   SYM_IGNORE  TRUE
   GEOM_OPT_MAX_CYCLES 400
   SCF_MAX_CYCLES 400
   METHOD   B3LYP
   BASIS   6-31G**
   PDB_PRINT 2
   SCF_CONVERGENCE 6
   THRESH 14
   SCF_PRINT 1
$end
$molecule
0 3
F -0.060708 -0.973911 0.481180
F 0.499682 -0.831384 -2.114454
C -0.570935 0.314933 0.705176
C 0.387068 1.219136 1.318138
C -1.595702 0.681252 -0.308769
H 0.394817 -1.090229 -1.222701
H 1.166625 1.701692 0.726174
H 0.408965 1.379738 2.392870
H -2.420972 -0.040363 -0.307221
H -1.999955 1.674714 -0.102042
H -1.155184 0.674822 -1.316650
$end
$scan
stre 2 4 3.900000 3.901000 0.100000
$end
