
$comment
	potential surface scanner
$end

$rem
   JOBTYPE  PES_SCAN
   UNRESTRICTED TRUE
   SYM_IGNORE  TRUE
   GEOM_OPT_MAX_CYCLES 400
   SCF_MAX_CYCLES 400
   METHOD   B3LYP
   BASIS   6-31G**
   PDB_PRINT 2
   SCF_CONVERGENCE 6
   THRESH 14
   SCF_PRINT 1
$end
$molecule
0 1
F -0.507579 -1.328306 0.190627
F 1.991384 0.020731 -0.239618
C -0.444984 -0.026945 -0.308828
C 0.748024 0.660924 0.302789
C -1.754226 0.679641 0.011669
H -0.291993 -0.096392 -1.392782
H 0.799514 1.717233 0.029763
H 0.777889 0.531542 1.386744
H -1.890424 0.776044 1.093378
H -1.784648 1.677775 -0.435874
H -2.589256 0.098153 -0.386167
$end
$scan
stre 2 4 1.600000 1.601000 0.100000
$end
