
$comment
	potential surface scanner
$end

$rem
   JOBTYPE  PES_SCAN
   UNRESTRICTED TRUE
   SYM_IGNORE  TRUE
   GEOM_OPT_MAX_CYCLES 400
   SCF_MAX_CYCLES 400
   METHOD   B3LYP
   BASIS   6-31G**
   PDB_PRINT 2
   SCF_CONVERGENCE 6
   THRESH 14
   SCF_PRINT 1
$end
$molecule
0 1
F -0.790599 -1.155327 0.949689
F 0.539896 -0.232114 -2.244443
C -0.567508 0.146577 0.650125
C 0.531861 0.740684 1.117640
C -1.647368 0.715642 -0.208950
H 0.795246 -0.045336 -1.367806
H 0.717811 1.786418 0.906985
H 1.236073 0.199444 1.738079
H -2.624273 0.553597 0.257123
H -1.498058 1.785614 -0.365199
H -1.639383 0.215207 -1.181542
$end
$scan
stre 2 4 3.600000 3.601000 0.100000
$end
