
$comment
	potential surface scanner
$end

$rem
   JOBTYPE  PES_SCAN
   UNRESTRICTED TRUE
   SYM_IGNORE  TRUE
   GEOM_OPT_MAX_CYCLES 400
   SCF_MAX_CYCLES 400
   METHOD   B3LYP
   BASIS   6-31G**
   PDB_PRINT 2
   SCF_CONVERGENCE 6
   THRESH 14
   SCF_PRINT 1
$end
$molecule
0 3
F -0.520597 -1.017000 -0.447195
F 1.941112 -0.611149 -0.066135
C -0.717696 0.218925 0.229778
C 0.500929 0.959255 0.481318
C -2.041371 0.794068 -0.127845
H 1.161880 -1.061640 -0.332182
H 0.934981 1.607535 -0.278258
H 0.959541 0.975006 1.463358
H -2.830649 0.039059 -0.049808
H -2.282249 1.625857 0.539138
H -2.052184 1.180488 -1.160460
$end
$scan
stre 2 4 2.100000 2.101000 0.100000
$end
