
$comment
	potential surface scanner
$end

$rem
   JOBTYPE  PES_SCAN
   UNRESTRICTED TRUE
   SYM_IGNORE  TRUE
   GEOM_OPT_MAX_CYCLES 400
   SCF_MAX_CYCLES 400
   METHOD   B3LYP
   BASIS   6-31G**
   PDB_PRINT 2
   SCF_CONVERGENCE 6
   THRESH 14
   SCF_PRINT 1
$end
$molecule
0 1
F -0.546400 -1.295456 0.288564
F 2.229777 -0.051857 -0.525834
C -0.468740 -0.015747 -0.242029
C 0.640390 0.722850 0.408872
C -1.810883 0.687586 -0.016482
H -0.245389 -0.095112 -1.311401
H 0.799754 1.755467 0.120620
H 0.902666 0.448915 1.424911
H -2.018815 0.803012 1.051207
H -1.825314 1.673143 -0.490138
H -2.603343 0.077600 -0.456586
$end
$scan
stre 2 4 2.100000 2.101000 0.100000
$end
