
$comment
	potential surface scanner
$end

$rem
   JOBTYPE  PES_SCAN
   UNRESTRICTED TRUE
   SYM_IGNORE  TRUE
   GEOM_OPT_MAX_CYCLES 400
   SCF_MAX_CYCLES 400
   METHOD   B3LYP
   BASIS   6-31G**
   PDB_PRINT 2
   SCF_CONVERGENCE 6
   THRESH 14
   SCF_PRINT 1
$end
$molecule
0 3
F -0.451510 -1.136842 0.444833
F 1.148622 -0.230287 -1.349804
C -0.718345 0.234469 0.638281
C 0.476240 0.998262 0.958566
C -1.799923 0.695445 -0.272308
H 0.741110 -0.861512 -0.792733
H 1.168770 1.304274 0.181365
H 0.704189 1.262417 1.988313
H -2.664121 0.025103 -0.226819
H -2.120128 1.706345 -0.007887
H -1.431204 0.712729 -1.310098
$end
$scan
stre 2 4 2.600000 2.601000 0.100000
$end
