
$comment
	potential surface scanner
$end

$rem
   JOBTYPE  PES_SCAN
   UNRESTRICTED TRUE
   SYM_IGNORE  TRUE
   GEOM_OPT_MAX_CYCLES 400
   SCF_MAX_CYCLES 400
   METHOD   B3LYP
   BASIS   6-31G**
   PDB_PRINT 2
   SCF_CONVERGENCE 6
   THRESH 14
   SCF_PRINT 1
$end
$molecule
0 3
F -0.368296 -1.093918 0.502017
F 0.998658 -0.358186 -1.618815
C -0.701850 0.260857 0.689365
C 0.442297 1.070358 1.075573
C -1.748477 0.685399 -0.279157
H 0.639389 -0.900235 -0.947304
H 1.184874 1.340248 0.324912
H 0.638711 1.327237 2.112410
H -2.603402 0.001768 -0.256086
H -2.096440 1.696167 -0.052959
H -1.331761 0.680709 -1.298249
$end
$scan
stre 2 4 3.000000 3.001000 0.100000
$end
