
$comment
	potential surface scanner
$end

$rem
   JOBTYPE  PES_SCAN
   UNRESTRICTED TRUE
   SYM_IGNORE  TRUE
   GEOM_OPT_MAX_CYCLES 400
   SCF_MAX_CYCLES 400
   METHOD   B3LYP
   BASIS   6-31G**
   PDB_PRINT 2
   SCF_CONVERGENCE 6
   THRESH 14
   SCF_PRINT 1
$end
$molecule
0 3
F -0.479080 -1.144919 0.383415
F 1.279762 -0.256240 -1.236513
C -0.723579 0.226946 0.601160
C 0.481626 0.980715 0.906598
C -1.833865 0.710478 -0.261103
H 0.811994 -0.888596 -0.730799
H 1.133418 1.354097 0.126230
H 0.728864 1.216977 1.939330
H -2.699129 0.042775 -0.200271
H -2.139843 1.716745 0.036215
H -1.506469 0.751424 -1.312553
$end
$scan
stre 2 4 2.500000 2.501000 0.100000
$end
