
$comment
	potential surface scanner
$end

$rem
   JOBTYPE  PES_SCAN
   UNRESTRICTED TRUE
   SYM_IGNORE  TRUE
   GEOM_OPT_MAX_CYCLES 400
   SCF_MAX_CYCLES 400
   METHOD   B3LYP
   BASIS   6-31G**
   PDB_PRINT 2
   SCF_CONVERGENCE 6
   THRESH 14
   SCF_PRINT 1
$end
$molecule
0 3
F -0.141792 -1.008989 0.497286
F 0.620587 -0.714039 -2.018269
C -0.605492 0.300657 0.705664
C 0.401584 1.186491 1.265026
C -1.631761 0.680007 -0.302005
H 0.447581 -1.047132 -1.162350
H 1.178310 1.621281 0.633726
H 0.463708 1.374587 2.333523
H -2.465297 -0.031486 -0.296435
H -2.021954 1.678932 -0.094204
H -1.191770 0.670090 -1.310260
$end
$scan
stre 2 4 3.700000 3.701000 0.100000
$end
