
$comment
	potential surface scanner
$end

$rem
   JOBTYPE  PES_SCAN
   UNRESTRICTED TRUE
   SYM_IGNORE  TRUE
   GEOM_OPT_MAX_CYCLES 400
   SCF_MAX_CYCLES 400
   METHOD   B3LYP
   BASIS   6-31G**
   PDB_PRINT 2
   SCF_CONVERGENCE 6
   THRESH 14
   SCF_PRINT 1
$end
$molecule
0 1
F -0.539152 -1.302010 0.268911
F 2.185132 -0.034695 -0.465844
C -0.464600 -0.018794 -0.256855
C 0.659515 0.711345 0.386163
C -1.800017 0.686360 -0.011169
H -0.255995 -0.096531 -1.329258
H 0.799613 1.749301 0.104580
H 0.881894 0.459859 1.417989
H -1.991888 0.801520 1.059709
H -1.818572 1.673048 -0.482714
H -2.602228 0.080998 -0.439810
$end
$scan
stre 2 4 2.000000 2.001000 0.100000
$end
