
$comment
	potential surface scanner
$end

$rem
   JOBTYPE  PES_SCAN
   UNRESTRICTED TRUE
   SYM_IGNORE  TRUE
   GEOM_OPT_MAX_CYCLES 400
   SCF_MAX_CYCLES 400
   METHOD   B3LYP
   BASIS   6-31G**
   PDB_PRINT 2
   SCF_CONVERGENCE 6
   THRESH 14
   SCF_PRINT 1
$end
$molecule
0 1
F -1.003570 -1.123741 1.077322
F 1.884757 0.233612 -1.638522
C -0.740615 0.097987 0.558963
C 0.494844 0.594298 0.647970
C -1.947735 0.709378 -0.069108
H 1.169309 -0.006670 -1.088301
H 0.715312 1.582973 0.268467
H 1.275397 0.053144 1.170028
H -2.740729 0.822406 0.678167
H -1.716943 1.687830 -0.493071
H -2.336329 0.059185 -0.860213
$end
$scan
stre 2 4 2.800000 2.801000 0.100000
$end
