
$comment
	potential surface scanner
$end

$rem
   JOBTYPE  PES_SCAN
   UNRESTRICTED TRUE
   SYM_IGNORE  TRUE
   GEOM_OPT_MAX_CYCLES 400
   SCF_MAX_CYCLES 400
   METHOD   B3LYP
   BASIS   6-31G**
   PDB_PRINT 2
   SCF_CONVERGENCE 6
   THRESH 14
   SCF_PRINT 1
$end
$molecule
0 1
F -0.648114 -1.262513 0.530045
F 2.258079 0.051937 -1.112328
C -0.487643 -0.026646 -0.077687
C 0.573147 0.732782 0.604487
C -1.838934 0.700701 -0.094573
H -0.107483 -0.177003 -1.099614
H 0.748841 1.770055 0.346742
H 1.078005 0.315210 1.468694
H -2.203443 0.869250 0.922117
H -1.757360 1.660222 -0.611550
H -2.561395 0.076407 -0.624629
$end
$scan
stre 2 4 2.600000 2.601000 0.100000
$end
