
$comment
	potential surface scanner
$end

$rem
   JOBTYPE  PES_SCAN
   UNRESTRICTED TRUE
   SYM_IGNORE  TRUE
   GEOM_OPT_MAX_CYCLES 400
   SCF_MAX_CYCLES 400
   METHOD   B3LYP
   BASIS   6-31G**
   PDB_PRINT 2
   SCF_CONVERGENCE 6
   THRESH 14
   SCF_PRINT 1
$end
$molecule
0 3
F -0.411897 -1.115049 0.485506
F 1.066718 -0.278923 -1.491607
C -0.713426 0.248866 0.671627
C 0.458128 1.035294 1.020852
C -1.772331 0.687944 -0.276598
H 0.681975 -0.869433 -0.877004
H 1.182779 1.297328 0.252616
H 0.673717 1.303579 2.051326
H -2.631133 0.009741 -0.246492
H -2.109722 1.699176 -0.036428
H -1.371107 0.691880 -1.302091
$end
$scan
stre 2 4 2.800000 2.801000 0.100000
$end
