
$comment
	potential surface scanner
$end

$rem
   JOBTYPE  PES_SCAN
   UNRESTRICTED TRUE
   SYM_IGNORE  TRUE
   GEOM_OPT_MAX_CYCLES 400
   SCF_MAX_CYCLES 400
   METHOD   B3LYP
   BASIS   6-31G**
   PDB_PRINT 2
   SCF_CONVERGENCE 6
   THRESH 14
   SCF_PRINT 1
$end
$molecule
0 3
F -0.514635 -1.000402 -0.440847
F 1.987192 -0.661117 -0.083004
C -0.726585 0.229627 0.232697
C 0.484241 0.982770 0.490383
C -2.052564 0.797183 -0.128718
H 1.180617 -1.069695 -0.329596
H 0.935200 1.610037 -0.277144
H 0.960595 0.974365 1.464199
H -2.837071 0.037151 -0.051911
H -2.300191 1.627775 0.537274
H -2.063101 1.182710 -1.161624
$end
$scan
stre 2 4 2.200000 2.201000 0.100000
$end
