
$comment
	potential surface scanner
$end

$rem
   JOBTYPE  PES_SCAN
   UNRESTRICTED TRUE
   SYM_IGNORE  TRUE
   GEOM_OPT_MAX_CYCLES 400
   SCF_MAX_CYCLES 400
   METHOD   B3LYP
   BASIS   6-31G**
   PDB_PRINT 2
   SCF_CONVERGENCE 6
   THRESH 14
   SCF_PRINT 1
$end
$molecule
0 1
F -0.514421 -1.321153 0.208551
F 2.041347 0.003854 -0.290456
C -0.450075 -0.024620 -0.297681
C 0.724219 0.675355 0.321313
C -1.766060 0.680979 0.006362
H -0.284351 -0.095642 -1.378992
H 0.801672 1.726428 0.046302
H 0.804597 0.513709 1.395483
H -1.914821 0.781610 1.085927
H -1.795007 1.676547 -0.446700
H -2.593400 0.093334 -0.398408
$end
$scan
stre 2 4 1.700000 1.701000 0.100000
$end
