
$comment
	potential surface scanner
$end

$rem
   JOBTYPE  PES_SCAN
   UNRESTRICTED TRUE
   SYM_IGNORE  TRUE
   GEOM_OPT_MAX_CYCLES 400
   SCF_MAX_CYCLES 400
   METHOD   B3LYP
   BASIS   6-31G**
   PDB_PRINT 2
   SCF_CONVERGENCE 6
   THRESH 14
   SCF_PRINT 1
$end
$molecule
0 1
F -1.035658 -1.077805 1.308686
F 0.844614 0.694433 -1.959719
C -0.651894 0.054567 0.676383
C 0.561122 0.555290 0.923035
C -1.707375 0.581955 -0.237012
H 0.892453 0.230246 -1.150427
H 0.869976 1.484058 0.461081
H 1.223815 0.077093 1.634483
H -2.568681 0.932026 0.342410
H -1.315916 1.394334 -0.847976
H -2.058758 -0.215792 -0.899240
$end
$scan
stre 2 4 3.000000 3.001000 0.100000
$end
