
$comment
	potential surface scanner
$end

$rem
   JOBTYPE  PES_SCAN
   UNRESTRICTED TRUE
   SYM_IGNORE  TRUE
   GEOM_OPT_MAX_CYCLES 400
   SCF_MAX_CYCLES 400
   METHOD   B3LYP
   BASIS   6-31G**
   PDB_PRINT 2
   SCF_CONVERGENCE 6
   THRESH 14
   SCF_PRINT 1
$end
$molecule
0 3
F -0.101223 -0.991997 0.487745
F 0.565096 -0.770207 -2.067758
C -0.586777 0.308152 0.703287
C 0.394715 1.202857 1.292003
C -1.614879 0.679995 -0.305195
H 0.421050 -1.067551 -1.193642
H 1.174900 1.662053 0.682618
H 0.433908 1.376318 2.364185
H -2.447410 -0.032935 -0.294457
H -2.007141 1.679057 -0.102173
H -1.178537 0.664657 -1.314912
$end
$scan
stre 2 4 3.800000 3.801000 0.100000
$end
