
$comment
	potential surface scanner
$end

$rem
   JOBTYPE  PES_SCAN
   UNRESTRICTED TRUE
   SYM_IGNORE  TRUE
   GEOM_OPT_MAX_CYCLES 400
   SCF_MAX_CYCLES 400
   METHOD   B3LYP
   BASIS   6-31G**
   PDB_PRINT 2
   SCF_CONVERGENCE 6
   THRESH 14
   SCF_PRINT 1
$end
$molecule
0 3
F -0.525805 -1.034499 -0.451148
F 1.893943 -0.562745 -0.053621
C -0.708568 0.209112 0.228902
C 0.518775 0.934449 0.472995
C -2.029515 0.790999 -0.127216
H 1.142505 -1.053066 -0.335551
H 0.932033 1.606903 -0.277150
H 0.957828 0.976321 1.463218
H -2.823632 0.041138 -0.047993
H -2.264533 1.624822 0.539333
H -2.039333 1.176971 -1.160060
$end
$scan
stre 2 4 2.000000 2.001000 0.100000
$end
