
$comment
	potential surface scanner
$end

$rem
   JOBTYPE  PES_SCAN
   UNRESTRICTED TRUE
   SYM_IGNORE  TRUE
   GEOM_OPT_MAX_CYCLES 400
   SCF_MAX_CYCLES 400
   METHOD   B3LYP
   BASIS   6-31G**
   PDB_PRINT 2
   SCF_CONVERGENCE 6
   THRESH 14
   SCF_PRINT 1
$end
$molecule
0 1
F -0.530754 -1.308048 0.248863
F 2.137782 -0.021757 -0.406596
C -0.459943 -0.020760 -0.271065
C 0.680012 0.700216 0.363898
C -1.789052 0.684642 -0.005546
H -0.265773 -0.096383 -1.346457
H 0.800755 1.742777 0.086385
H 0.858421 0.475210 1.411202
H -1.966002 0.796446 1.068399
H -1.811879 1.673679 -0.472344
H -2.599866 0.084377 -0.425037
$end
$scan
stre 2 4 1.900000 1.901000 0.100000
$end
