
$comment
	potential surface scanner
$end

$rem
   JOBTYPE  PES_SCAN
   UNRESTRICTED TRUE
   SYM_IGNORE  TRUE
   GEOM_OPT_MAX_CYCLES 400
   SCF_MAX_CYCLES 400
   METHOD   B3LYP
   BASIS   6-31G**
   PDB_PRINT 2
   SCF_CONVERGENCE 6
   THRESH 14
   SCF_PRINT 1
$end
$molecule
0 3
F -0.500016 -0.967694 -0.429096
F 2.071253 -0.773610 -0.119599
C -0.740396 0.253119 0.238162
C 0.455742 1.028592 0.506655
C -2.071990 0.802801 -0.130102
H 1.218309 -1.096872 -0.327403
H 0.927395 1.630588 -0.269824
H 0.956458 0.984789 1.467976
H -2.845502 0.031393 -0.056209
H -2.334570 1.629948 0.534451
H -2.082985 1.187348 -1.163302
$end
$scan
stre 2 4 2.400000 2.401000 0.100000
$end
