
$comment
	potential surface scanner
$end

$rem
   JOBTYPE  PES_SCAN
   UNRESTRICTED TRUE
   SYM_IGNORE  TRUE
   GEOM_OPT_MAX_CYCLES 400
   SCF_MAX_CYCLES 400
   METHOD   B3LYP
   BASIS   6-31G**
   PDB_PRINT 2
   SCF_CONVERGENCE 6
   THRESH 14
   SCF_PRINT 1
$end
$molecule
0 3
F -0.343191 -1.083532 0.507415
F 0.954547 -0.403690 -1.680913
C -0.693164 0.266064 0.695799
C 0.435622 1.087307 1.102546
C -1.734263 0.684640 -0.281300
H 0.616416 -0.920728 -0.979552
H 1.184715 1.372571 0.363394
H 0.618561 1.337845 2.143339
H -2.585935 -0.003391 -0.263935
H -2.089283 1.693498 -0.057855
H -1.310321 0.679818 -1.297231
$end
$scan
stre 2 4 3.100000 3.101000 0.100000
$end
