
$comment
	potential surface scanner
$end

$rem
   JOBTYPE  PES_SCAN
   UNRESTRICTED TRUE
   SYM_IGNORE  TRUE
   GEOM_OPT_MAX_CYCLES 400
   SCF_MAX_CYCLES 400
   METHOD   B3LYP
   BASIS   6-31G**
   PDB_PRINT 2
   SCF_CONVERGENCE 6
   THRESH 14
   SCF_PRINT 1
$end
$molecule
0 3
F -0.314231 -1.073516 0.508212
F 0.909224 -0.448884 -1.741538
C -0.680945 0.270791 0.698843
C 0.429495 1.103741 1.130608
C -1.719310 0.682846 -0.283782
H 0.590232 -0.941458 -1.014290
H 1.184882 1.413904 0.407521
H 0.593855 1.344530 2.176865
H -2.572105 -0.003925 -0.263059
H -2.073847 1.693697 -0.068919
H -1.293546 0.668676 -1.298754
$end
$scan
stre 2 4 3.200000 3.201000 0.100000
$end
