
$comment
	potential surface scanner
$end

$rem
   JOBTYPE  PES_SCAN
   UNRESTRICTED TRUE
   SYM_IGNORE  TRUE
   GEOM_OPT_MAX_CYCLES 400
   SCF_MAX_CYCLES 400
   METHOD   B3LYP
   BASIS   6-31G**
   PDB_PRINT 2
   SCF_CONVERGENCE 6
   THRESH 14
   SCF_PRINT 1
$end
$molecule
0 3
F -0.177834 -1.024714 0.500404
F 0.684861 -0.656093 -1.967050
C -0.618912 0.294244 0.701137
C 0.408085 1.169989 1.239010
C -1.650435 0.679074 -0.298782
H 0.474213 -1.024140 -1.134111
H 1.184385 1.582296 0.592229
H 0.486609 1.368422 2.304500
H -2.492366 -0.022111 -0.280933
H -2.026576 1.684129 -0.094307
H -1.218326 0.659304 -1.310394
$end
$scan
stre 2 4 3.600000 3.601000 0.100000
$end
