
$comment
	potential surface scanner
$end

$rem
   JOBTYPE  PES_SCAN
   UNRESTRICTED TRUE
   SYM_IGNORE  TRUE
   GEOM_OPT_MAX_CYCLES 400
   SCF_MAX_CYCLES 400
   METHOD   B3LYP
   BASIS   6-31G**
   PDB_PRINT 2
   SCF_CONVERGENCE 6
   THRESH 14
   SCF_PRINT 1
$end
$molecule
0 1
F -0.589297 -1.278403 0.391428
F 2.324049 -0.041213 -0.797206
C -0.481417 -0.016246 -0.170394
C 0.592993 0.739551 0.500428
C -1.837113 0.694968 -0.046924
H -0.191326 -0.121162 -1.222781
H 0.776992 1.768128 0.215422
H 0.984894 0.389691 1.448673
H -2.115006 0.828710 1.002053
H -1.814622 1.670754 -0.539045
H -2.596446 0.075623 -0.529951
$end
$scan
stre 2 4 2.400000 2.401000 0.100000
$end
