
$comment
	potential surface scanner
$end

$rem
   JOBTYPE  PES_SCAN
   UNRESTRICTED TRUE
   SYM_IGNORE  TRUE
   GEOM_OPT_MAX_CYCLES 400
   SCF_MAX_CYCLES 400
   METHOD   B3LYP
   BASIS   6-31G**
   PDB_PRINT 2
   SCF_CONVERGENCE 6
   THRESH 14
   SCF_PRINT 1
$end
$molecule
0 1
F -0.496773 -1.345693 0.155435
F 1.892940 0.065678 -0.146616
C -0.435044 -0.034017 -0.330666
C 0.797760 0.628170 0.270735
C -1.728724 0.678577 0.021298
H -0.306095 -0.101079 -1.419608
H 0.786536 1.698470 0.004526
H 0.721066 0.559671 1.368129
H -1.836822 0.773283 1.106588
H -1.760554 1.678974 -0.421289
H -2.580589 0.108366 -0.356832
$end
$scan
stre 2 4 1.400000 1.401000 0.100000
$end
