
$comment
	potential surface scanner
$end

$rem
   JOBTYPE  PES_SCAN
   UNRESTRICTED TRUE
   SYM_IGNORE  TRUE
   GEOM_OPT_MAX_CYCLES 400
   SCF_MAX_CYCLES 400
   METHOD   B3LYP
   BASIS   6-31G**
   PDB_PRINT 2
   SCF_CONVERGENCE 6
   THRESH 14
   SCF_PRINT 1
$end
$molecule
0 1
F -0.499461 -1.336763 0.165113
F 1.941827 0.033007 -0.180382
C -0.439568 -0.028431 -0.322434
C 0.772283 0.645481 0.285496
C -1.741741 0.677811 0.018680
H -0.300498 -0.091876 -1.409435
H 0.800626 1.705783 0.006981
H 0.742906 0.555898 1.377614
H -1.861220 0.770991 1.102761
H -1.776645 1.677899 -0.424398
H -2.584808 0.100599 -0.368295
$end
$scan
stre 2 4 1.500000 1.501000 0.100000
$end
