
$comment
	potential surface scanner
$end

$rem
   JOBTYPE  PES_SCAN
   UNRESTRICTED TRUE
   SYM_IGNORE  TRUE
   GEOM_OPT_MAX_CYCLES 400
   SCF_MAX_CYCLES 400
   METHOD   B3LYP
   BASIS   6-31G**
   PDB_PRINT 2
   SCF_CONVERGENCE 6
   THRESH 14
   SCF_PRINT 1
$end
$molecule
0 1
F -0.755347 -1.156228 0.934078
F 0.471226 -0.296353 -2.356500
C -0.553472 0.158489 0.671023
C 0.514996 0.766522 1.187280
C -1.622236 0.721634 -0.206208
H 0.781294 -0.098478 -1.502005
H 0.685739 1.819637 1.002665
H 1.213100 0.226567 1.815667
H -2.607012 0.544883 0.238022
H -1.483223 1.794847 -0.349878
H -1.591367 0.228884 -1.182443
$end
$scan
stre 2 4 3.800000 3.801000 0.100000
$end
