
$comment
	potential surface scanner
$end

$rem
   JOBTYPE  PES_SCAN
   UNRESTRICTED TRUE
   SYM_IGNORE  TRUE
   GEOM_OPT_MAX_CYCLES 400
   SCF_MAX_CYCLES 400
   METHOD   B3LYP
   BASIS   6-31G**
   PDB_PRINT 2
   SCF_CONVERGENCE 6
   THRESH 14
   SCF_PRINT 1
$end
$molecule
0 1
F -0.871521 -1.142052 1.020475
F 0.675142 -0.039228 -2.037139
C -0.601321 0.121496 0.624951
C 0.560394 0.678410 0.976468
C -1.693135 0.695378 -0.213080
H 0.843124 0.057664 -1.122824
H 0.778747 1.701550 0.696605
H 1.270432 0.140300 1.593152
H -2.653772 0.593002 0.300745
H -1.509153 1.749789 -0.425501
H -1.745240 0.154096 -1.162150
$end
$scan
stre 2 4 3.200000 3.201000 0.100000
$end
