
$comment
	potential surface scanner
$end

$rem
   JOBTYPE  PES_SCAN
   UNRESTRICTED TRUE
   SYM_IGNORE  TRUE
   GEOM_OPT_MAX_CYCLES 400
   SCF_MAX_CYCLES 400
   METHOD   B3LYP
   BASIS   6-31G**
   PDB_PRINT 2
   SCF_CONVERGENCE 6
   THRESH 14
   SCF_PRINT 1
$end
$molecule
0 3
F -0.525519 -1.118827 -0.401313
F 1.724280 -0.410665 -0.082586
C -0.680650 0.204772 0.284248
C 0.577469 0.865757 0.461079
C -1.983883 0.780387 -0.130473
H 1.013313 -0.999957 -0.344754
H 0.900054 1.615627 -0.260992
H 1.003380 0.959503 1.454922
H -2.779809 0.029822 -0.093901
H -2.253340 1.612448 0.525951
H -1.941597 1.171538 -1.160472
$end
$scan
stre 2 4 1.700000 1.701000 0.100000
$end
