
$comment
	potential surface scanner
$end

$rem
   JOBTYPE  PES_SCAN
   UNRESTRICTED TRUE
   SYM_IGNORE  TRUE
   GEOM_OPT_MAX_CYCLES 400
   SCF_MAX_CYCLES 400
   METHOD   B3LYP
   BASIS   6-31G**
   PDB_PRINT 2
   SCF_CONVERGENCE 6
   THRESH 14
   SCF_PRINT 1
$end
$molecule
0 1
F -0.522731 -1.314533 0.229061
F 2.090154 -0.008116 -0.348507
C -0.455138 -0.022918 -0.284613
C 0.701539 0.688070 0.342199
C -1.777638 0.682917 0.000210
H -0.275297 -0.096545 -1.362968
H 0.800906 1.735140 0.067365
H 0.832737 0.492678 1.403713
H -1.940181 0.790087 1.077035
H -1.803667 1.674881 -0.460542
H -2.596983 0.088740 -0.411252
$end
$scan
stre 2 4 1.800000 1.801000 0.100000
$end
