
$comment
	potential surface scanner
$end

$rem
   JOBTYPE  PES_SCAN
   UNRESTRICTED TRUE
   SYM_IGNORE  TRUE
   GEOM_OPT_MAX_CYCLES 400
   SCF_MAX_CYCLES 400
   METHOD   B3LYP
   BASIS   6-31G**
   PDB_PRINT 2
   SCF_CONVERGENCE 6
   THRESH 14
   SCF_PRINT 1
$end
$molecule
0 1
F -0.807758 -1.152997 0.956660
F 0.571266 -0.209270 -2.186714
C -0.575717 0.142460 0.640185
C 0.539135 0.728761 1.081169
C -1.661418 0.715177 -0.208359
H 0.818500 -0.026493 -1.306482
H 0.730470 1.771574 0.860955
H 1.248295 0.185367 1.694142
H -2.634612 0.551941 0.264943
H -1.513162 1.785627 -0.362014
H -1.661300 0.218260 -1.182784
$end
$scan
stre 2 4 3.500000 3.501000 0.100000
$end
