
$comment
	potential surface scanner
$end

$rem
   JOBTYPE  PES_SCAN
   UNRESTRICTED TRUE
   SYM_IGNORE  TRUE
   GEOM_OPT_MAX_CYCLES 400
   SCF_MAX_CYCLES 400
   METHOD   B3LYP
   BASIS   6-31G**
   PDB_PRINT 2
   SCF_CONVERGENCE 6
   THRESH 14
   SCF_PRINT 1
$end
$molecule
0 1
F -0.613194 -1.272303 0.445727
F 2.324918 -0.010321 -0.926517
C -0.485194 -0.020154 -0.134145
C 0.581021 0.738634 0.542459
C -1.841462 0.698119 -0.064386
H -0.161746 -0.142733 -1.176118
H 0.764564 1.769471 0.265467
H 1.020792 0.360642 1.458564
H -2.152933 0.844723 0.973232
H -1.796522 1.667837 -0.566577
H -2.586545 0.076486 -0.566003
$end
$scan
stre 2 4 2.500000 2.501000 0.100000
$end
