
$comment
	potential surface scanner
$end

$rem
   JOBTYPE  PES_SCAN
   UNRESTRICTED TRUE
   SYM_IGNORE  TRUE
   GEOM_OPT_MAX_CYCLES 400
   SCF_MAX_CYCLES 400
   METHOD   B3LYP
   BASIS   6-31G**
   PDB_PRINT 2
   SCF_CONVERGENCE 6
   THRESH 14
   SCF_PRINT 1
$end
$molecule
0 1
F -0.772842 -1.154824 0.942778
F 0.495315 -0.266029 -2.298509
C -0.558951 0.153145 0.659639
C 0.524166 0.754683 1.153638
C -1.632963 0.718803 -0.209347
H 0.788995 -0.075195 -1.435845
H 0.704328 1.803657 0.954821
H 1.223255 0.214135 1.780475
H -2.614037 0.541833 0.242750
H -1.494519 1.792193 -0.352026
H -1.609049 0.228004 -1.186674
$end
$scan
stre 2 4 3.700000 3.701000 0.100000
$end
