
$comment
	potential surface scanner
$end

$rem
   JOBTYPE  PES_SCAN
   UNRESTRICTED TRUE
   SYM_IGNORE  TRUE
   GEOM_OPT_MAX_CYCLES 400
   SCF_MAX_CYCLES 400
   METHOD   B3LYP
   BASIS   6-31G**
   PDB_PRINT 2
   SCF_CONVERGENCE 6
   THRESH 14
   SCF_PRINT 1
$end
$molecule
0 1
F -0.987235 -1.132308 1.033005
F 2.007533 0.185730 -1.484308
C -0.745847 0.100947 0.529774
C 0.490350 0.599634 0.586161
C -1.976006 0.717126 -0.047058
H 1.180923 -0.010982 -1.097708
H 0.694138 1.598555 0.225005
H 1.288034 0.053997 1.075307
H -2.742162 0.818772 0.729441
H -1.763512 1.702088 -0.465795
H -2.392516 0.076843 -0.832121
$end
$scan
stre 2 4 2.700000 2.701000 0.100000
$end
