
$comment
	potential surface scanner
$end

$rem
   JOBTYPE  PES_SCAN
   UNRESTRICTED TRUE
   SYM_IGNORE  TRUE
   GEOM_OPT_MAX_CYCLES 400
   SCF_MAX_CYCLES 400
   METHOD   B3LYP
   BASIS   6-31G**
   PDB_PRINT 2
   SCF_CONVERGENCE 6
   THRESH 14
   SCF_PRINT 1
$end
$molecule
0 3
F -0.250147 -1.051130 0.507849
F 0.800782 -0.547280 -1.858661
C -0.652081 0.281732 0.702256
C 0.418962 1.136938 1.185616
C -1.685572 0.680167 -0.290790
H 0.531995 -0.983572 -1.077238
H 1.186591 1.497461 0.498916
H 0.541275 1.358980 2.241991
H -2.534163 -0.012310 -0.270980
H -2.049194 1.689400 -0.084025
H -1.254745 0.660014 -1.303231
$end
$scan
stre 2 4 3.400000 3.401000 0.100000
$end
