
$comment
	potential surface scanner
$end

$rem
   JOBTYPE  PES_SCAN
   UNRESTRICTED TRUE
   SYM_IGNORE  TRUE
   GEOM_OPT_MAX_CYCLES 400
   SCF_MAX_CYCLES 400
   METHOD   B3LYP
   BASIS   6-31G**
   PDB_PRINT 2
   SCF_CONVERGENCE 6
   THRESH 14
   SCF_PRINT 1
$end
$molecule
0 3
F -0.508174 -0.984460 -0.433477
F 2.031558 -0.713859 -0.102937
C -0.734758 0.240753 0.236482
C 0.468912 1.005189 0.499566
C -2.062879 0.800251 -0.129620
H 1.199712 -1.079468 -0.328080
H 0.932840 1.615576 -0.274198
H 0.959441 0.976849 1.466266
H -2.842618 0.035250 -0.054079
H -2.317662 1.629933 0.534801
H -2.072674 1.184390 -1.163014
$end
$scan
stre 2 4 2.300000 2.301000 0.100000
$end
