
$comment
	potential surface scanner
$end

$rem
   JOBTYPE  PES_SCAN
   UNRESTRICTED TRUE
   SYM_IGNORE  TRUE
   GEOM_OPT_MAX_CYCLES 400
   SCF_MAX_CYCLES 400
   METHOD   B3LYP
   BASIS   6-31G**
   PDB_PRINT 2
   SCF_CONVERGENCE 6
   THRESH 14
   SCF_PRINT 1
$end
$molecule
0 3
F -0.172249 -0.942747 0.567045
F 0.618312 -0.957626 -1.939798
C -0.429976 0.418492 0.534718
C 0.319024 1.205900 1.291236
C -1.538977 0.733244 -0.404857
H 0.453772 -1.233502 -1.063936
H 0.147092 2.274451 1.297836
H 1.107791 0.799780 1.912656
H -2.459048 0.219942 -0.103929
H -1.726444 1.807969 -0.433842
H -1.265597 0.384497 -1.405427
$end
$scan
stre 2 4 4.000000 4.001000 0.100000
$end
