
$comment
	potential surface scanner
$end

$rem
   JOBTYPE  PES_SCAN
   UNRESTRICTED TRUE
   SYM_IGNORE  TRUE
   GEOM_OPT_MAX_CYCLES 400
   SCF_MAX_CYCLES 400
   METHOD   B3LYP
   BASIS   6-31G**
   PDB_PRINT 2
   SCF_CONVERGENCE 6
   THRESH 14
   SCF_PRINT 1
$end
$molecule
0 1
F -1.043651 -1.079139 1.318236
F 0.818946 0.687329 -2.027107
C -0.650493 0.053162 0.690824
C 0.556630 0.556506 0.958538
C -1.694144 0.580077 -0.237000
H 0.875688 0.247128 -1.205997
H 0.873706 1.482137 0.494657
H 1.212222 0.078201 1.676219
H -2.562864 0.930683 0.330858
H -1.295589 1.392162 -0.844018
H -2.036752 -0.217841 -0.903506
$end
$scan
stre 2 4 3.100000 3.101000 0.100000
$end
