
$comment
	potential surface scanner
$end

$rem
   JOBTYPE  PES_SCAN
   UNRESTRICTED TRUE
   SYM_IGNORE  TRUE
   GEOM_OPT_MAX_CYCLES 400
   SCF_MAX_CYCLES 400
   METHOD   B3LYP
   BASIS   6-31G**
   PDB_PRINT 2
   SCF_CONVERGENCE 6
   THRESH 14
   SCF_PRINT 1
$end
$molecule
0 1
F -0.557518 -1.289775 0.315577
F 2.270371 -0.057240 -0.601279
C -0.473126 -0.014697 -0.222839
C 0.622803 0.730866 0.435257
C -1.820790 0.689720 -0.024185
H -0.231436 -0.099297 -1.288054
H 0.794478 1.760628 0.145504
H 0.927013 0.432102 1.432093
H -2.047834 0.809581 1.038951
H -1.826799 1.672646 -0.503086
H -2.603459 0.075868 -0.476235
$end
$scan
stre 2 4 2.200000 2.201000 0.100000
$end
