
$comment
	potential surface scanner
$end

$rem
   JOBTYPE  PES_SCAN
   UNRESTRICTED TRUE
   SYM_IGNORE  TRUE
   GEOM_OPT_MAX_CYCLES 400
   SCF_MAX_CYCLES 400
   METHOD   B3LYP
   BASIS   6-31G**
   PDB_PRINT 2
   SCF_CONVERGENCE 6
   THRESH 14
   SCF_PRINT 1
$end
$molecule
0 3
F -0.531519 -1.079327 -0.434776
F 1.791003 -0.462616 -0.056683
C -0.690856 0.196367 0.248991
C 0.556365 0.884712 0.463296
C -2.002155 0.784407 -0.128249
H 1.082418 -1.023247 -0.344990
H 0.914477 1.609544 -0.266784
H 0.970703 0.968842 1.462091
H -2.804173 0.042122 -0.058520
H -2.240556 1.623838 0.530147
H -1.992009 1.165763 -1.162813
$end
$scan
stre 2 4 1.800000 1.801000 0.100000
$end
