
$comment
	potential surface scanner
$end

$rem
   JOBTYPE  PES_SCAN
   UNRESTRICTED TRUE
   SYM_IGNORE  TRUE
   GEOM_OPT_MAX_CYCLES 400
   SCF_MAX_CYCLES 400
   METHOD   B3LYP
   BASIS   6-31G**
   PDB_PRINT 2
   SCF_CONVERGENCE 6
   THRESH 14
   SCF_PRINT 1
$end
$molecule
0 1
F -0.987492 -1.129331 1.066443
F 1.772343 0.175061 -1.750080
C -0.725642 0.101053 0.570428
C 0.499501 0.613356 0.705072
C -1.920940 0.704830 -0.086786
H 1.132162 0.010539 -1.089675
H 0.716533 1.610159 0.343773
H 1.271149 0.075800 1.243906
H -2.737612 0.797644 0.637384
H -1.690388 1.691533 -0.491240
H -2.275916 0.059761 -0.897522
$end
$scan
stre 2 4 2.900000 2.901000 0.100000
$end
