
$comment
	potential surface scanner
$end

$rem
   JOBTYPE  PES_SCAN
   UNRESTRICTED TRUE
   SYM_IGNORE  TRUE
   GEOM_OPT_MAX_CYCLES 400
   SCF_MAX_CYCLES 400
   METHOD   B3LYP
   BASIS   6-31G**
   PDB_PRINT 2
   SCF_CONVERGENCE 6
   THRESH 14
   SCF_PRINT 1
$end
$molecule
0 3
F -0.529846 -1.053146 -0.450999
F 1.845522 -0.514608 -0.047092
C -0.699598 0.201396 0.231797
C 0.537591 0.908748 0.466110
C -2.017252 0.788025 -0.127099
H 1.120725 -1.042733 -0.339592
H 0.926663 1.607547 -0.273152
H 0.958154 0.975765 1.463242
H -2.815782 0.042884 -0.047311
H -2.248796 1.625004 0.536748
H -2.023682 1.171523 -1.160942
$end
$scan
stre 2 4 1.900000 1.901000 0.100000
$end
