
$comment
	potential surface scanner
$end

$rem
   JOBTYPE  PES_SCAN
   UNRESTRICTED TRUE
   SYM_IGNORE  TRUE
   GEOM_OPT_MAX_CYCLES 400
   SCF_MAX_CYCLES 400
   METHOD   B3LYP
   BASIS   6-31G**
   PDB_PRINT 2
   SCF_CONVERGENCE 6
   THRESH 14
   SCF_PRINT 1
$end
$molecule
0 1
S 2.896628 0.503847 -0.023252
S -3.679201 1.044620 -0.030006
C 0.162165 0.107772 0.048705
C 1.490615 -0.697111 -0.045157
C -0.971005 -0.839570 0.044153
H 0.172731 0.702860 0.966018
H 0.101145 0.785454 -0.807949
H 1.582896 -1.381199 0.801886
H 1.517845 -1.274400 -0.972324
H -1.327640 -1.290587 0.963260
H -1.307830 -1.290651 -0.882495
H 3.876620 -0.417524 -0.106518
H -3.406774 1.470087 1.222572
$end
$scan
stre 2 5 3.400000 3.401000 0.100000
$end
