
$comment
	potential surface scanner
$end

$rem
   JOBTYPE  PES_SCAN
   UNRESTRICTED TRUE
   SYM_IGNORE  TRUE
   GEOM_OPT_MAX_CYCLES 400
   SCF_MAX_CYCLES 400
   METHOD   B3LYP
   BASIS   6-31G**
   PDB_PRINT 2
   SCF_CONVERGENCE 6
   THRESH 14
   SCF_PRINT 1
$end
$molecule
0 3
S 2.910639 -0.055195 0.031692
S -3.444167 -0.757007 0.055790
C 0.212873 0.493015 0.274594
C 1.162917 -0.650807 -0.070600
C -1.294994 0.048420 0.205264
H 0.424773 0.864756 1.283521
H 0.366981 1.329572 -0.416488
H 1.029181 -1.482955 0.627128
H 0.969870 -1.014962 -1.084063
H -1.399172 -0.758883 0.933704
H -1.453522 -0.300787 -0.817531
H 3.497839 -1.222410 -0.298537
H -1.875018 0.930852 0.454420
$end
$scan
stre 2 5 2.200000 2.201000 0.100000
$end
