
$comment
	potential surface scanner
$end

$rem
   JOBTYPE  PES_SCAN
   UNRESTRICTED TRUE
   SYM_IGNORE  TRUE
   GEOM_OPT_MAX_CYCLES 400
   SCF_MAX_CYCLES 400
   METHOD   B3LYP
   BASIS   6-31G**
   PDB_PRINT 2
   SCF_CONVERGENCE 6
   THRESH 14
   SCF_PRINT 1
$end
$molecule
0 1
S 2.923625 0.497832 -0.030383
S -3.822451 1.116434 -0.044746
C 0.191092 0.088519 0.065774
C 1.523359 -0.709981 -0.054554
C -0.936556 -0.861142 0.059180
H 0.210265 0.670823 0.991231
H 0.121235 0.776762 -0.782374
H 1.626772 -1.405651 0.781489
H 1.541570 -1.272982 -0.990515
H -1.308075 -1.301456 0.977657
H -1.287295 -1.298004 -0.869324
H 3.906245 -0.417910 -0.139343
H -3.581591 1.540354 1.214801
$end
$scan
stre 2 5 3.600000 3.601000 0.100000
$end
