
$comment
	potential surface scanner
$end

$rem
   JOBTYPE  PES_SCAN
   UNRESTRICTED TRUE
   SYM_IGNORE  TRUE
   GEOM_OPT_MAX_CYCLES 400
   SCF_MAX_CYCLES 400
   METHOD   B3LYP
   BASIS   6-31G**
   PDB_PRINT 2
   SCF_CONVERGENCE 6
   THRESH 14
   SCF_PRINT 1
$end
$molecule
0 1
S 2.861859 0.506203 -0.013298
S -3.474466 0.931829 -0.025259
C 0.123516 0.139717 0.034890
C 1.441432 -0.677489 -0.032963
C -1.024503 -0.798603 0.032070
H 0.127292 0.748277 0.943445
H 0.073412 0.808698 -0.828630
H 1.519286 -1.351148 0.824180
H 1.474211 -1.268940 -0.951295
H -1.346822 -1.277776 0.949648
H -1.328888 -1.279076 -0.890958
H 3.832483 -0.426591 -0.078816
H -3.170619 1.368495 1.215883
$end
$scan
stre 2 5 3.100000 3.101000 0.100000
$end
