
$comment
	potential surface scanner
$end

$rem
   JOBTYPE  PES_SCAN
   UNRESTRICTED TRUE
   SYM_IGNORE  TRUE
   GEOM_OPT_MAX_CYCLES 400
   SCF_MAX_CYCLES 400
   METHOD   B3LYP
   BASIS   6-31G**
   PDB_PRINT 2
   SCF_CONVERGENCE 6
   THRESH 14
   SCF_PRINT 1
$end
$molecule
0 1
S 2.938108 0.493877 -0.034265
S -3.896600 1.151078 -0.047011
C 0.206259 0.079632 0.071083
C 1.539971 -0.716525 -0.058238
C -0.919698 -0.870245 0.063910
H 0.228636 0.657567 0.999323
H 0.133901 0.771448 -0.774259
H 1.647285 -1.415604 0.774367
H 1.554820 -1.275121 -0.996825
H -1.296504 -1.307181 0.982147
H -1.278259 -1.299718 -0.865281
H 3.921598 -0.419831 -0.151807
H -3.671322 1.574221 1.215749
$end
$scan
stre 2 5 3.700000 3.701000 0.100000
$end
