
$comment
	potential surface scanner
$end

$rem
   JOBTYPE  PES_SCAN
   UNRESTRICTED TRUE
   SYM_IGNORE  TRUE
   GEOM_OPT_MAX_CYCLES 400
   SCF_MAX_CYCLES 400
   METHOD   B3LYP
   BASIS   6-31G**
   PDB_PRINT 2
   SCF_CONVERGENCE 6
   THRESH 14
   SCF_PRINT 1
$end
$molecule
0 3
S 2.975961 0.003661 0.050852
S -4.154550 -0.537701 0.141517
C 0.257263 0.470651 0.266631
C 1.248052 -0.644451 -0.069831
C -1.201664 -0.009868 0.184639
H 0.462089 0.849370 1.274860
H 0.406458 1.310951 -0.421662
H 1.132351 -1.480763 0.625886
H 1.076607 -1.012467 -1.085592
H -1.385588 -0.821054 0.896688
H -1.434355 -0.381871 -0.818993
H 3.602970 -1.141962 -0.281586
H -1.877394 0.819109 0.415488
$end
$scan
stre 2 5 2.900000 2.901000 0.100000
$end
