
$comment
	potential surface scanner
$end

$rem
   JOBTYPE  PES_SCAN
   UNRESTRICTED TRUE
   SYM_IGNORE  TRUE
   GEOM_OPT_MAX_CYCLES 400
   SCF_MAX_CYCLES 400
   METHOD   B3LYP
   BASIS   6-31G**
   PDB_PRINT 2
   SCF_CONVERGENCE 6
   THRESH 14
   SCF_PRINT 1
$end
$molecule
0 1
S 3.025974 0.478479 -0.071369
S -4.399853 1.411990 -0.058047
C 0.304365 0.009275 0.112186
C 1.649785 -0.757265 -0.093597
C -0.808906 -0.948243 0.098138
H 0.350734 0.551555 1.060986
H 0.203336 0.731155 -0.707277
H 1.795082 -1.483768 0.708748
H 1.638459 -1.280041 -1.052372
H -1.214652 -1.364490 1.013914
H -1.188423 -1.347803 -0.836638
H 4.023352 -0.416512 -0.212596
H -4.271058 1.839266 1.216820
$end
$scan
stre 2 5 4.400000 4.401000 0.100000
$end
