
$comment
	potential surface scanner
$end

$rem
   JOBTYPE  PES_SCAN
   UNRESTRICTED TRUE
   SYM_IGNORE  TRUE
   GEOM_OPT_MAX_CYCLES 400
   SCF_MAX_CYCLES 400
   METHOD   B3LYP
   BASIS   6-31G**
   PDB_PRINT 2
   SCF_CONVERGENCE 6
   THRESH 14
   SCF_PRINT 1
$end
$molecule
0 1
S 3.040245 0.474037 -0.077780
S -4.474976 1.446117 -0.062075
C 0.320441 -0.000743 0.121952
C 1.665630 -0.763419 -0.100109
C -0.793095 -0.957182 0.104968
H 0.372379 0.533558 1.074918
H 0.214576 0.728910 -0.690578
H 1.817350 -1.495876 0.695567
H 1.647829 -1.278594 -1.062873
H -1.206413 -1.367821 1.019827
H -1.169766 -1.356293 -0.831185
H 4.038202 -0.419169 -0.225951
H -4.364205 1.880072 1.212215
$end
$scan
stre 2 5 4.500000 4.501000 0.100000
$end
