
$comment
	potential surface scanner
$end

$rem
   JOBTYPE  PES_SCAN
   UNRESTRICTED TRUE
   SYM_IGNORE  TRUE
   GEOM_OPT_MAX_CYCLES 400
   SCF_MAX_CYCLES 400
   METHOD   B3LYP
   BASIS   6-31G**
   PDB_PRINT 2
   SCF_CONVERGENCE 6
   THRESH 14
   SCF_PRINT 1
$end
$molecule
0 1
S 2.978001 0.485035 -0.044997
S -4.117589 1.260175 -0.041199
C 0.248970 0.051836 0.079279
C 1.588318 -0.735443 -0.067595
C -0.872221 -0.899699 0.070752
H 0.277028 0.621044 1.013062
H 0.171225 0.750517 -0.760804
H 1.705362 -1.440057 0.758761
H 1.597897 -1.285986 -1.010827
H -1.260437 -1.327964 0.988653
H -1.248402 -1.311382 -0.859872
H 3.966535 -0.421352 -0.175679
H -3.926492 1.676874 1.229362
$end
$scan
stre 2 5 4.000000 4.001000 0.100000
$end
