
$comment
	potential surface scanner
$end

$rem
   JOBTYPE  PES_SCAN
   UNRESTRICTED TRUE
   SYM_IGNORE  TRUE
   GEOM_OPT_MAX_CYCLES 400
   SCF_MAX_CYCLES 400
   METHOD   B3LYP
   BASIS   6-31G**
   PDB_PRINT 2
   SCF_CONVERGENCE 6
   THRESH 14
   SCF_PRINT 1
$end
$molecule
0 3
S 3.135206 0.450133 -0.058515
S -5.111068 1.794458 -0.019792
C 0.408575 -0.063412 0.093282
C 1.760716 -0.790864 -0.081640
C -0.738227 -1.017647 0.081842
H 0.433925 0.494859 1.037095
H 0.304766 0.671122 -0.715257
H 1.909433 -1.508334 0.729094
H 1.777793 -1.328253 -1.033040
H -1.079748 -1.491392 0.996237
H -1.155951 -1.373119 -0.854535
H 4.143720 -0.425167 -0.239294
H -4.680944 2.011217 1.243419
$end
$scan
stre 2 5 5.100000 5.101000 0.100000
$end
