
$comment
	potential surface scanner
$end

$rem
   JOBTYPE  PES_SCAN
   UNRESTRICTED TRUE
   SYM_IGNORE  TRUE
   GEOM_OPT_MAX_CYCLES 400
   SCF_MAX_CYCLES 400
   METHOD   B3LYP
   BASIS   6-31G**
   PDB_PRINT 2
   SCF_CONVERGENCE 6
   THRESH 14
   SCF_PRINT 1
$end
$molecule
0 1
S 2.809739 0.491732 -0.006815
S -3.111554 0.679795 -0.008754
C 0.061769 0.208777 0.012664
C 1.348226 -0.640539 -0.015203
C -1.141155 -0.690230 0.014850
H 0.067383 0.842206 0.905097
H 0.036909 0.866566 -0.860553
H 1.396667 -1.294415 0.859970
H 1.378373 -1.259100 -0.916325
H -1.338680 -1.262515 0.917218
H -1.343752 -1.242815 -0.898826
H 3.751223 -0.472774 -0.023893
H -2.806951 1.196913 1.199467
$end
$scan
stre 2 5 2.500000 2.501000 0.100000
$end
