
$comment
	potential surface scanner
$end

$rem
   JOBTYPE  PES_SCAN
   UNRESTRICTED TRUE
   SYM_IGNORE  TRUE
   GEOM_OPT_MAX_CYCLES 400
   SCF_MAX_CYCLES 400
   METHOD   B3LYP
   BASIS   6-31G**
   PDB_PRINT 2
   SCF_CONVERGENCE 6
   THRESH 14
   SCF_PRINT 1
$end
$molecule
0 1
S 2.787174 0.468633 -0.007509
S -2.892818 0.502239 -0.015927
C 0.032227 0.255329 0.010046
C 1.292474 -0.619350 -0.006653
C -1.225004 -0.601027 0.018728
H 0.050286 0.900514 0.895701
H 0.023186 0.912469 -0.865258
H 1.323880 -1.266002 0.875070
H 1.309459 -1.249329 -0.900636
H -1.307058 -1.242451 0.897645
H -1.326711 -1.211490 -0.880916
H 3.701943 -0.521233 -0.013656
H -2.660839 1.095296 1.172264
$end
$scan
stre 2 5 2.100000 2.101000 0.100000
$end
