
$comment
	potential surface scanner
$end

$rem
   JOBTYPE  PES_SCAN
   UNRESTRICTED TRUE
   SYM_IGNORE  TRUE
   GEOM_OPT_MAX_CYCLES 400
   SCF_MAX_CYCLES 400
   METHOD   B3LYP
   BASIS   6-31G**
   PDB_PRINT 2
   SCF_CONVERGENCE 6
   THRESH 14
   SCF_PRINT 1
$end
$molecule
0 3
S 2.975810 0.457237 -0.032353
S -4.333177 1.685452 0.374674
C 0.232910 0.082969 0.157656
C 1.541866 -0.713186 -0.046124
C -0.962630 -0.809953 0.145826
H 0.298384 0.623112 1.109835
H 0.158169 0.835190 -0.637262
H 1.665623 -1.445648 0.755339
H 1.516630 -1.240410 -1.003065
H -1.281032 -1.320849 1.048796
H -1.396458 -1.141490 -0.792757
H 3.935594 -0.466252 -0.236817
H -3.243487 0.877433 0.335145
$end
$scan
stre 2 5 4.100000 4.101000 0.100000
$end
