
$comment
	potential surface scanner
$end

$rem
   JOBTYPE  PES_SCAN
   UNRESTRICTED TRUE
   SYM_IGNORE  TRUE
   GEOM_OPT_MAX_CYCLES 400
   SCF_MAX_CYCLES 400
   METHOD   B3LYP
   BASIS   6-31G**
   PDB_PRINT 2
   SCF_CONVERGENCE 6
   THRESH 14
   SCF_PRINT 1
$end
$molecule
0 3
S 2.902104 -0.057550 0.035091
S -3.369660 -0.747734 0.065058
C 0.205033 0.492291 0.272758
C 1.153703 -0.651164 -0.071987
C -1.320578 0.041165 0.202540
H 0.411184 0.863102 1.282992
H 0.353785 1.329103 -0.418840
H 1.018277 -1.484405 0.624278
H 0.963021 -1.014129 -1.086423
H -1.384550 -0.763804 0.936685
H -1.443985 -0.297626 -0.827491
H 3.488894 -1.225653 -0.293186
H -1.869029 0.940012 0.457418
$end
$scan
stre 2 5 2.100000 2.101000 0.100000
$end
