
$comment
	potential surface scanner
$end

$rem
   JOBTYPE  PES_SCAN
   UNRESTRICTED TRUE
   SYM_IGNORE  TRUE
   GEOM_OPT_MAX_CYCLES 400
   SCF_MAX_CYCLES 400
   METHOD   B3LYP
   BASIS   6-31G**
   PDB_PRINT 2
   SCF_CONVERGENCE 6
   THRESH 14
   SCF_PRINT 1
$end
$molecule
0 1
S 2.852628 0.504926 -0.012011
S -3.408758 0.891181 -0.029595
C 0.112854 0.150676 0.034285
C 1.426448 -0.671676 -0.030338
C -1.041624 -0.782995 0.032149
H 0.118018 0.761257 0.941519
H 0.065445 0.818838 -0.829829
H 1.500913 -1.343878 0.828344
H 1.457904 -1.265428 -0.947308
H -1.348744 -1.275498 0.948412
H -1.335560 -1.271942 -0.890126
H 3.819286 -0.432188 -0.074875
H -3.110618 1.340325 1.208271
$end
$scan
stre 2 5 3.000000 3.001000 0.100000
$end
