
$comment
	potential surface scanner
$end

$rem
   JOBTYPE  PES_SCAN
   UNRESTRICTED TRUE
   SYM_IGNORE  TRUE
   GEOM_OPT_MAX_CYCLES 400
   SCF_MAX_CYCLES 400
   METHOD   B3LYP
   BASIS   6-31G**
   PDB_PRINT 2
   SCF_CONVERGENCE 6
   THRESH 14
   SCF_PRINT 1
$end
$molecule
0 3
S 2.958847 -0.003035 0.039788
S -3.965093 -0.551524 0.100169
C 0.243633 0.472950 0.268820
C 1.228507 -0.647156 -0.067030
C -1.220818 -0.003937 0.195576
H 0.452912 0.855704 1.274550
H 0.390716 1.309597 -0.424229
H 1.114287 -1.479029 0.634225
H 1.050081 -1.020504 -1.079642
H -1.393328 -0.818069 0.906215
H -1.449379 -0.372428 -0.810172
H 3.580175 -1.151586 -0.293156
H -1.882340 0.832620 0.433780
$end
$scan
stre 2 5 2.700000 2.701000 0.100000
$end
