
$comment
	potential surface scanner
$end

$rem
   JOBTYPE  PES_SCAN
   UNRESTRICTED TRUE
   SYM_IGNORE  TRUE
   GEOM_OPT_MAX_CYCLES 400
   SCF_MAX_CYCLES 400
   METHOD   B3LYP
   BASIS   6-31G**
   PDB_PRINT 2
   SCF_CONVERGENCE 6
   THRESH 14
   SCF_PRINT 1
$end
$molecule
0 3
S 2.895630 0.488432 -0.024886
S -3.896705 1.562781 0.373049
C 0.152637 0.117061 0.152484
C 1.461904 -0.681741 -0.038754
C -1.041486 -0.778970 0.140815
H 0.211903 0.664252 1.100717
H 0.080849 0.862615 -0.648767
H 1.580896 -1.408908 0.768264
H 1.441530 -1.215127 -0.992406
H -1.346195 -1.302414 1.042381
H -1.444981 -1.142221 -0.800096
H 3.855941 -0.437445 -0.215484
H -2.843723 0.695293 0.321579
$end
$scan
stre 2 5 3.600000 3.601000 0.100000
$end
