
$comment
	potential surface scanner
$end

$rem
   JOBTYPE  PES_SCAN
   UNRESTRICTED TRUE
   SYM_IGNORE  TRUE
   GEOM_OPT_MAX_CYCLES 400
   SCF_MAX_CYCLES 400
   METHOD   B3LYP
   BASIS   6-31G**
   PDB_PRINT 2
   SCF_CONVERGENCE 6
   THRESH 14
   SCF_PRINT 1
$end
$molecule
0 1
S 2.885194 0.504564 -0.019986
S -3.611251 1.006054 -0.025691
C 0.149281 0.118783 0.042236
C 1.474349 -0.690659 -0.040660
C -0.988276 -0.825848 0.038628
H 0.156909 0.719338 0.956011
H 0.092720 0.792399 -0.817662
H 1.560986 -1.370047 0.810861
H 1.504237 -1.274026 -0.964029
H -1.334810 -1.285107 0.957339
H -1.316727 -1.285311 -0.886737
H 3.862111 -0.420872 -0.094540
H -3.326528 1.434329 1.223124
$end
$scan
stre 2 5 3.300000 3.301000 0.100000
$end
