
$comment
	potential surface scanner
$end

$rem
   JOBTYPE  PES_SCAN
   UNRESTRICTED TRUE
   SYM_IGNORE  TRUE
   GEOM_OPT_MAX_CYCLES 400
   SCF_MAX_CYCLES 400
   METHOD   B3LYP
   BASIS   6-31G**
   PDB_PRINT 2
   SCF_CONVERGENCE 6
   THRESH 14
   SCF_PRINT 1
$end
$molecule
0 1
S 2.803460 0.486550 -0.006459
S -3.056519 0.635222 -0.008142
C 0.053499 0.220815 0.010627
C 1.333508 -0.634736 -0.012909
C -1.161964 -0.668678 0.014332
H 0.061560 0.857881 0.900820
H 0.032926 0.877763 -0.863585
H 1.377057 -1.286222 0.864426
H 1.361253 -1.256886 -0.911760
H -1.331593 -1.258704 0.911946
H -1.340929 -1.235857 -0.896491
H 3.738502 -0.484258 -0.018246
H -2.762563 1.170710 1.194339
$end
$scan
stre 2 5 2.400000 2.401000 0.100000
$end
