
$comment
	potential surface scanner
$end

$rem
   JOBTYPE  PES_SCAN
   UNRESTRICTED TRUE
   SYM_IGNORE  TRUE
   GEOM_OPT_MAX_CYCLES 400
   SCF_MAX_CYCLES 400
   METHOD   B3LYP
   BASIS   6-31G**
   PDB_PRINT 2
   SCF_CONVERGENCE 6
   THRESH 14
   SCF_PRINT 1
$end
$molecule
0 3
S 3.102540 0.455160 -0.056828
S -4.810496 1.617732 -0.053101
C 0.373473 -0.040630 0.103647
C 1.719612 -0.776301 -0.082119
C -0.780708 -0.986083 0.091689
H 0.406836 0.511371 1.051013
H 0.270927 0.699975 -0.699345
H 1.867089 -1.500304 0.722995
H 1.728578 -1.307093 -1.037328
H -1.113238 -1.472445 1.002833
H -1.214382 -1.321026 -0.844945
H 4.104599 -0.426042 -0.244749
H -4.546633 1.969288 1.225133
$end
$scan
stre 2 5 4.700000 4.701000 0.100000
$end
