
$comment
	potential surface scanner
$end

$rem
   JOBTYPE  PES_SCAN
   UNRESTRICTED TRUE
   SYM_IGNORE  TRUE
   GEOM_OPT_MAX_CYCLES 400
   SCF_MAX_CYCLES 400
   METHOD   B3LYP
   BASIS   6-31G**
   PDB_PRINT 2
   SCF_CONVERGENCE 6
   THRESH 14
   SCF_PRINT 1
$end
$molecule
0 3
S 3.124168 0.454967 -0.056830
S -5.030704 1.754097 -0.029573
C 0.397651 -0.059490 0.095042
C 1.749909 -0.786221 -0.082261
C -0.748868 -1.014099 0.084340
H 0.423756 0.497511 1.039612
H 0.292493 0.675650 -0.712753
H 1.899231 -1.505633 0.726627
H 1.766461 -1.321144 -1.035048
H -1.085613 -1.492257 0.998259
H -1.172202 -1.364294 -0.851486
H 4.132947 -0.420035 -0.237571
H -4.641032 2.004549 1.240539
$end
$scan
stre 2 5 5.000000 5.001000 0.100000
$end
