
$comment
	potential surface scanner
$end

$rem
   JOBTYPE  PES_SCAN
   UNRESTRICTED TRUE
   SYM_IGNORE  TRUE
   GEOM_OPT_MAX_CYCLES 400
   SCF_MAX_CYCLES 400
   METHOD   B3LYP
   BASIS   6-31G**
   PDB_PRINT 2
   SCF_CONVERGENCE 6
   THRESH 14
   SCF_PRINT 1
$end
$molecule
0 1
S 3.012156 0.482387 -0.061983
S -4.326263 1.377355 -0.053214
C 0.289160 0.018160 0.102197
C 1.634970 -0.751957 -0.085031
C -0.825363 -0.938511 0.089823
H 0.329131 0.568903 1.046579
H 0.194247 0.733438 -0.723247
H 1.772327 -1.471412 0.725085
H 1.631660 -1.283379 -1.039116
H -1.225068 -1.358379 1.006763
H -1.207029 -1.338153 -0.844005
H 4.008597 -0.413058 -0.206955
H -4.180330 1.798202 1.222000
$end
$scan
stre 2 5 4.300000 4.301000 0.100000
$end
