
$comment
	potential surface scanner
$end

$rem
   JOBTYPE  PES_SCAN
   UNRESTRICTED TRUE
   SYM_IGNORE  TRUE
   GEOM_OPT_MAX_CYCLES 400
   SCF_MAX_CYCLES 400
   METHOD   B3LYP
   BASIS   6-31G**
   PDB_PRINT 2
   SCF_CONVERGENCE 6
   THRESH 14
   SCF_PRINT 1
$end
$molecule
0 1
S 2.835326 0.499979 -0.009300
S -3.281235 0.814916 -0.031116
C 0.091894 0.174937 0.026907
C 1.394654 -0.658891 -0.024820
C -1.079429 -0.746689 0.027468
H 0.097478 0.794259 0.928446
H 0.052091 0.839168 -0.840499
H 1.459183 -1.325427 0.839328
H 1.425232 -1.260936 -0.936631
H -1.350961 -1.264442 0.941733
H -1.338910 -1.264767 -0.889939
H 3.791535 -0.448720 -0.058149
H -2.988665 1.270212 1.205470
$end
$scan
stre 2 5 2.800000 2.801000 0.100000
$end
