
$comment
	potential surface scanner
$end

$rem
   JOBTYPE  PES_SCAN
   UNRESTRICTED TRUE
   SYM_IGNORE  TRUE
   GEOM_OPT_MAX_CYCLES 400
   SCF_MAX_CYCLES 400
   METHOD   B3LYP
   BASIS   6-31G**
   PDB_PRINT 2
   SCF_CONVERGENCE 6
   THRESH 14
   SCF_PRINT 1
$end
$molecule
0 3
S 3.113405 0.450450 -0.054373
S -4.892412 1.658064 -0.038579
C 0.383238 -0.043523 0.094782
C 1.730196 -0.780662 -0.079626
C -0.770870 -0.989135 0.084814
H 0.413335 0.515316 1.038313
H 0.283692 0.691084 -0.714099
H 1.872947 -1.499693 0.730800
H 1.744200 -1.317359 -1.031436
H -1.103640 -1.472637 0.997477
H -1.203063 -1.328684 -0.850825
H 4.115612 -0.431806 -0.236405
H -4.578444 1.972186 1.238053
$end
$scan
stre 2 5 4.800000 4.801000 0.100000
$end
