
$comment
	potential surface scanner
$end

$rem
   JOBTYPE  PES_SCAN
   UNRESTRICTED TRUE
   SYM_IGNORE  TRUE
   GEOM_OPT_MAX_CYCLES 400
   SCF_MAX_CYCLES 400
   METHOD   B3LYP
   BASIS   6-31G**
   PDB_PRINT 2
   SCF_CONVERGENCE 6
   THRESH 14
   SCF_PRINT 1
$end
$molecule
0 1
S 2.828411 0.496204 -0.008456
S -3.220999 0.774178 -0.033678
C 0.083022 0.186809 0.025008
C 1.379925 -0.652884 -0.022773
C -1.098961 -0.726927 0.026658
H 0.090269 0.809239 0.924571
H 0.046976 0.850378 -0.843089
H 1.440041 -1.317821 0.843056
H 1.408700 -1.257739 -0.932896
H -1.351670 -1.257236 0.939501
H -1.338410 -1.260797 -0.887653
H 3.779222 -0.458148 -0.053019
H -2.938333 1.238344 1.201667
$end
$scan
stre 2 5 2.700000 2.701000 0.100000
$end
