
$comment
	potential surface scanner
$end

$rem
   JOBTYPE  PES_SCAN
   UNRESTRICTED TRUE
   SYM_IGNORE  TRUE
   GEOM_OPT_MAX_CYCLES 400
   SCF_MAX_CYCLES 400
   METHOD   B3LYP
   BASIS   6-31G**
   PDB_PRINT 2
   SCF_CONVERGENCE 6
   THRESH 14
   SCF_PRINT 1
$end
$molecule
0 1
S 2.792206 0.474840 -0.006644
S -2.947470 0.546024 -0.011994
C 0.038695 0.244388 0.009518
C 1.305397 -0.623960 -0.008687
C -1.203770 -0.623892 0.016458
H 0.053106 0.887310 0.896351
H 0.026021 0.901227 -0.865588
H 1.340369 -1.272062 0.871751
H 1.326390 -1.251633 -0.904100
H -1.315193 -1.248975 0.902132
H -1.331639 -1.220652 -0.887136
H 3.713377 -0.509109 -0.013421
H -2.689291 1.120093 1.180259
$end
$scan
stre 2 5 2.200000 2.201000 0.100000
$end
