
$comment
	potential surface scanner
$end

$rem
   JOBTYPE  PES_SCAN
   UNRESTRICTED TRUE
   SYM_IGNORE  TRUE
   GEOM_OPT_MAX_CYCLES 400
   SCF_MAX_CYCLES 400
   METHOD   B3LYP
   BASIS   6-31G**
   PDB_PRINT 2
   SCF_CONVERGENCE 6
   THRESH 14
   SCF_PRINT 1
$end
$molecule
0 3
S 2.928031 -0.055631 0.026794
S -3.601003 -0.799342 0.043447
C 0.230348 0.498209 0.277220
C 1.179061 -0.648416 -0.068530
C -1.259819 0.061906 0.208088
H 0.449632 0.869724 1.284871
H 0.393097 1.333895 -0.413325
H 1.045712 -1.478695 0.631314
H 0.981829 -1.013914 -1.080583
H -1.410111 -0.747827 0.928420
H -1.461572 -0.295402 -0.806153
H 3.512254 -1.223920 -0.304514
H -1.879259 0.923020 0.451845
$end
$scan
stre 2 5 2.400000 2.401000 0.100000
$end
