
$comment
	potential surface scanner
$end

$rem
   JOBTYPE  PES_SCAN
   UNRESTRICTED TRUE
   SYM_IGNORE  TRUE
   GEOM_OPT_MAX_CYCLES 400
   SCF_MAX_CYCLES 400
   METHOD   B3LYP
   BASIS   6-31G**
   PDB_PRINT 2
   SCF_CONVERGENCE 6
   THRESH 14
   SCF_PRINT 1
$end
$molecule
0 3
S 2.949209 -0.017480 0.033377
S -3.853070 -0.621606 0.070112
C 0.239606 0.479257 0.271015
C 1.213899 -0.649022 -0.066821
C -1.232666 0.015245 0.203916
H 0.454108 0.861163 1.275946
H 0.390020 1.314219 -0.423281
H 1.095592 -1.479060 0.635936
H 1.029087 -1.022286 -1.078326
H -1.400263 -0.798135 0.915848
H -1.459806 -0.349207 -0.803625
H 3.561088 -1.171142 -0.299282
H -1.878603 0.861657 0.444079
$end
$scan
stre 2 5 2.600000 2.601000 0.100000
$end
