
$comment
	potential surface scanner
$end

$rem
   JOBTYPE  PES_SCAN
   UNRESTRICTED TRUE
   SYM_IGNORE  TRUE
   GEOM_OPT_MAX_CYCLES 400
   SCF_MAX_CYCLES 400
   METHOD   B3LYP
   BASIS   6-31G**
   PDB_PRINT 2
   SCF_CONVERGENCE 6
   THRESH 14
   SCF_PRINT 1
$end
$molecule
0 1
S 2.779205 0.453898 -0.011760
S -2.784292 0.413253 -0.024830
C 0.021504 0.277670 0.012147
C 1.268338 -0.611027 -0.002226
C -1.266976 -0.553819 0.025425
H 0.046976 0.926310 0.896223
H 0.019426 0.935234 -0.863656
H 1.293143 -1.253770 0.882690
H 1.275572 -1.246180 -0.892884
H -1.285386 -1.228397 0.887891
H -1.316420 -1.187294 -0.867132
H 3.680173 -0.548484 -0.018068
H -2.623063 1.046204 1.155079
$end
$scan
stre 2 5 1.900000 1.901000 0.100000
$end
