
$comment
	potential surface scanner
$end

$rem
   JOBTYPE  PES_SCAN
   UNRESTRICTED TRUE
   SYM_IGNORE  TRUE
   GEOM_OPT_MAX_CYCLES 400
   SCF_MAX_CYCLES 400
   METHOD   B3LYP
   BASIS   6-31G**
   PDB_PRINT 2
   SCF_CONVERGENCE 6
   THRESH 14
   SCF_PRINT 1
$end
$molecule
0 1
S 2.988787 0.484887 -0.049516
S -4.186663 1.300167 -0.043289
C 0.261752 0.040330 0.085023
C 1.604007 -0.741034 -0.072381
C -0.856902 -0.913107 0.075508
H 0.292613 0.604747 1.021678
H 0.179178 0.743271 -0.751409
H 1.726937 -1.449445 0.749802
H 1.610841 -1.286507 -1.018539
H -1.249152 -1.338642 0.993397
H -1.236672 -1.319653 -0.856123
H 3.980494 -0.417352 -0.184650
H -4.007024 1.715936 1.229396
$end
$scan
stre 2 5 4.100000 4.101000 0.100000
$end
