
$comment
	potential surface scanner
$end

$rem
   JOBTYPE  PES_SCAN
   UNRESTRICTED TRUE
   SYM_IGNORE  TRUE
   GEOM_OPT_MAX_CYCLES 400
   SCF_MAX_CYCLES 400
   METHOD   B3LYP
   BASIS   6-31G**
   PDB_PRINT 2
   SCF_CONVERGENCE 6
   THRESH 14
   SCF_PRINT 1
$end
$molecule
0 1
S -1.486772 -0.000191 -0.001764
C 0.313228 -0.000004 -0.000595
C 1.081047 1.280282 0.000226
C 1.081320 -1.280127 0.000258
H 1.737467 1.322072 0.880880
H 1.743369 1.320228 -0.876044
H 0.424104 2.148658 -0.002680
H 0.424561 -2.148646 -0.001403
H 1.738824 -1.321234 0.880131
H 1.742582 -1.320470 -0.876799
$end
$scan
stre 1 2 1.900000 1.901000 0.100000
$end
