
$comment
	potential surface scanner
$end

$rem
   JOBTYPE  PES_SCAN
   UNRESTRICTED TRUE
   SYM_IGNORE  TRUE
   GEOM_OPT_MAX_CYCLES 400
   SCF_MAX_CYCLES 400
   METHOD   B3LYP
   BASIS   6-31G**
   PDB_PRINT 2
   SCF_CONVERGENCE 6
   THRESH 14
   SCF_PRINT 1
$end
$molecule
0 1
S -1.779406 -0.000221 -0.002860
C 0.420593 0.000008 -0.000548
C 1.112859 1.298145 0.000344
C 1.113135 -1.297982 0.000419
H 1.771586 1.367042 0.880812
H 1.776735 1.365942 -0.876304
H 0.417432 2.135578 -0.002040
H 0.417889 -2.135569 -0.000918
H 1.772815 -1.366311 0.880212
H 1.776093 -1.366064 -0.876908
$end
$scan
stre 1 2 2.300000 2.301000 0.100000
$end
