
$comment
	potential surface scanner
$end

$rem
   JOBTYPE  PES_SCAN
   UNRESTRICTED TRUE
   SYM_IGNORE  TRUE
   GEOM_OPT_MAX_CYCLES 400
   SCF_MAX_CYCLES 400
   METHOD   B3LYP
   BASIS   6-31G**
   PDB_PRINT 2
   SCF_CONVERGENCE 6
   THRESH 14
   SCF_PRINT 1
$end
$molecule
0 1
S -2.814267 -0.000270 -0.002026
C 0.485733 0.000003 0.000051
C 1.216648 1.268675 -0.000311
C 1.216934 -1.268506 -0.000134
H 1.883084 1.307103 0.879193
H 1.893837 1.305208 -0.871559
H 0.569875 2.146959 -0.004363
H 0.570353 -2.146943 -0.001158
H 1.886970 -1.305918 0.876648
H 1.890568 -1.305746 -0.874131
$end
$scan
stre 1 2 3.400000 3.401000 0.100000
$end
