
$comment
	potential surface scanner
$end

$rem
   JOBTYPE  PES_SCAN
   UNRESTRICTED TRUE
   SYM_IGNORE  TRUE
   GEOM_OPT_MAX_CYCLES 400
   SCF_MAX_CYCLES 400
   METHOD   B3LYP
   BASIS   6-31G**
   PDB_PRINT 2
   SCF_CONVERGENCE 6
   THRESH 14
   SCF_PRINT 1
$end
$molecule
0 1
S -3.007078 -0.036245 1.001454
C 0.582232 0.006090 0.104202
C 1.325329 1.256217 0.016332
C 1.252847 -1.246228 -0.221888
H 0.991316 2.013643 0.731334
H 2.424424 1.189355 -0.034856
H 0.968814 1.624249 -0.968291
H 0.585056 -1.990276 -0.666257
H 1.461774 -1.634295 0.796209
H 2.215020 -1.181947 -0.756028
$end
$scan
stre 1 2 3.800000 3.801000 0.100000
$end
