
$comment
	potential surface scanner
$end

$rem
   JOBTYPE  PES_SCAN
   UNRESTRICTED TRUE
   SYM_IGNORE  TRUE
   GEOM_OPT_MAX_CYCLES 400
   SCF_MAX_CYCLES 400
   METHOD   B3LYP
   BASIS   6-31G**
   PDB_PRINT 2
   SCF_CONVERGENCE 6
   THRESH 14
   SCF_PRINT 1
$end
$molecule
0 1
S -2.906605 -0.021739 1.005087
C 0.573693 0.002905 0.084807
C 1.310322 1.256988 0.011934
C 1.248674 -1.250783 -0.221520
H 0.963884 2.004338 0.731883
H 2.410102 1.196279 -0.027481
H 0.960465 1.635758 -0.970679
H 0.590187 -1.990713 -0.686532
H 1.422797 -1.642623 0.801636
H 2.226215 -1.189846 -0.726923
$end
$scan
stre 1 2 3.700000 3.701000 0.100000
$end
