
$comment
	potential surface scanner
$end

$rem
   JOBTYPE  PES_SCAN
   UNRESTRICTED TRUE
   SYM_IGNORE  TRUE
   GEOM_OPT_MAX_CYCLES 400
   SCF_MAX_CYCLES 400
   METHOD   B3LYP
   BASIS   6-31G**
   PDB_PRINT 2
   SCF_CONVERGENCE 6
   THRESH 14
   SCF_PRINT 1
$end
$molecule
0 1
S -2.715295 -0.000251 -0.002713
C 0.484704 -0.000001 -0.000340
C 1.206425 1.272495 -0.000046
C 1.206718 -1.272330 0.000124
H 1.873333 1.314901 0.878936
H 1.882041 1.313560 -0.872353
H 0.552661 2.145354 -0.003366
H 0.553152 -2.145345 -0.000871
H 1.876322 -1.313892 0.877072
H 1.879674 -1.313926 -0.874233
$end
$scan
stre 1 2 3.300000 3.301000 0.100000
$end
