
$comment
	potential surface scanner
$end

$rem
   JOBTYPE  PES_SCAN
   UNRESTRICTED TRUE
   SYM_IGNORE  TRUE
   GEOM_OPT_MAX_CYCLES 400
   SCF_MAX_CYCLES 400
   METHOD   B3LYP
   BASIS   6-31G**
   PDB_PRINT 2
   SCF_CONVERGENCE 6
   THRESH 14
   SCF_PRINT 1
$end
$molecule
0 1
S -2.411029 -0.000239 -0.003662
C 0.488969 0.000005 -0.000578
C 1.176472 1.287881 0.000325
C 1.176762 -1.287718 0.000458
H 1.841460 1.348894 0.879734
H 1.847156 1.348189 -0.874763
H 0.495113 2.138579 -0.001978
H 0.495598 -2.138576 -0.000533
H 1.843128 -1.348132 0.878855
H 1.846105 -1.348316 -0.875648
$end
$scan
stre 1 2 3.000000 3.001000 0.100000
$end
