
$comment
	potential surface scanner
$end

$rem
   JOBTYPE  PES_SCAN
   UNRESTRICTED TRUE
   SYM_IGNORE  TRUE
   GEOM_OPT_MAX_CYCLES 400
   SCF_MAX_CYCLES 400
   METHOD   B3LYP
   BASIS   6-31G**
   PDB_PRINT 2
   SCF_CONVERGENCE 6
   THRESH 14
   SCF_PRINT 1
$end
$molecule
0 1
S -2.309693 -0.000251 -0.003794
C 0.490305 0.000009 -0.000482
C 1.166958 1.293226 0.000389
C 1.167241 -1.293059 0.000511
H 1.830524 1.361204 0.880220
H 1.835728 1.360469 -0.875522
H 0.475672 2.135589 -0.001806
H 0.476142 -2.135578 -0.000513
H 1.831999 -1.360475 0.879477
H 1.834857 -1.360567 -0.876270
$end
$scan
stre 1 2 2.900000 2.901000 0.100000
$end
