
$comment
	potential surface scanner
$end

$rem
   JOBTYPE  PES_SCAN
   UNRESTRICTED TRUE
   SYM_IGNORE  TRUE
   GEOM_OPT_MAX_CYCLES 400
   SCF_MAX_CYCLES 400
   METHOD   B3LYP
   BASIS   6-31G**
   PDB_PRINT 2
   SCF_CONVERGENCE 6
   THRESH 14
   SCF_PRINT 1
$end
$molecule
0 1
S -1.941597 -0.000235 -0.003325
C 0.458401 0.000011 -0.000486
C 1.130459 1.301502 0.000395
C 1.130737 -1.301336 0.000484
H 1.789726 1.377370 0.881176
H 1.794636 1.376462 -0.876743
H 0.425978 2.131748 -0.001835
H 0.426436 -2.131739 -0.000734
H 1.790949 -1.376664 0.880599
H 1.794007 -1.376551 -0.877324
$end
$scan
stre 1 2 2.500000 2.501000 0.100000
$end
