
$comment
	potential surface scanner
$end

$rem
   JOBTYPE  PES_SCAN
   UNRESTRICTED TRUE
   SYM_IGNORE  TRUE
   GEOM_OPT_MAX_CYCLES 400
   SCF_MAX_CYCLES 400
   METHOD   B3LYP
   BASIS   6-31G**
   PDB_PRINT 2
   SCF_CONVERGENCE 6
   THRESH 14
   SCF_PRINT 1
$end
$molecule
0 1
S -2.911889 -0.000278 -0.000343
C 0.488111 0.000004 0.000903
C 1.226998 1.265484 -0.000916
C 1.227277 -1.265317 -0.000742
H 1.891397 1.301115 0.880221
H 1.906583 1.298015 -0.870377
H 0.586089 2.148247 -0.006566
H 0.586557 -2.148234 -0.001978
H 1.897050 -1.299573 0.876330
H 1.901562 -1.298899 -0.874321
$end
$scan
stre 1 2 3.500000 3.501000 0.100000
$end
