
$comment
	potential surface scanner
$end

$rem
   JOBTYPE  PES_SCAN
   UNRESTRICTED TRUE
   SYM_IGNORE  TRUE
   GEOM_OPT_MAX_CYCLES 400
   SCF_MAX_CYCLES 400
   METHOD   B3LYP
   BASIS   6-31G**
   PDB_PRINT 2
   SCF_CONVERGENCE 6
   THRESH 14
   SCF_PRINT 1
$end
$molecule
0 3
S -3.508187 0.019316 0.766471
C 0.602048 -0.006078 -0.096847
C 1.346944 1.253337 -0.119054
C 1.345938 -1.263291 -0.146072
H 1.271757 1.617621 0.922541
H 2.410213 1.218646 -0.409157
H 0.807048 2.017642 -0.691681
H 0.782328 -2.060521 -0.643412
H 1.351932 -1.568985 0.919049
H 2.389708 -1.227116 -0.499628
$end
$scan
stre 1 2 4.800000 4.801000 0.100000
$end
