
$comment
	potential surface scanner
$end

$rem
   JOBTYPE  PES_SCAN
   UNRESTRICTED TRUE
   SYM_IGNORE  TRUE
   GEOM_OPT_MAX_CYCLES 400
   SCF_MAX_CYCLES 400
   METHOD   B3LYP
   BASIS   6-31G**
   PDB_PRINT 2
   SCF_CONVERGENCE 6
   THRESH 14
   SCF_PRINT 1
$end
$molecule
0 1
S -2.814173 -0.019707 0.983479
C 0.568249 0.002301 0.084180
C 1.299787 1.258781 0.013529
C 1.239563 -1.253002 -0.219154
H 0.948472 2.002819 0.734424
H 2.399470 1.199330 -0.022708
H 0.951546 1.639174 -0.968828
H 0.578731 -1.990884 -0.683905
H 1.410669 -1.644776 0.804607
H 2.217420 -1.193473 -0.723411
$end
$scan
stre 1 2 3.600000 3.601000 0.100000
$end
