
$comment
	potential surface scanner
$end

$rem
   JOBTYPE  PES_SCAN
   UNRESTRICTED TRUE
   SYM_IGNORE  TRUE
   GEOM_OPT_MAX_CYCLES 400
   SCF_MAX_CYCLES 400
   METHOD   B3LYP
   BASIS   6-31G**
   PDB_PRINT 2
   SCF_CONVERGENCE 6
   THRESH 14
   SCF_PRINT 1
$end
$molecule
0 1
S -3.281495 -0.042774 1.066424
C 0.599899 0.007265 0.100879
C 1.356088 1.252126 0.009632
C 1.280401 -1.241107 -0.229755
H 1.032780 2.014576 0.724621
H 2.455133 1.178968 -0.045683
H 0.999655 1.622005 -0.974178
H 0.619079 -1.993076 -0.670882
H 1.497177 -1.624571 0.788504
H 2.241016 -1.172851 -0.767353
$end
$scan
stre 1 2 4.100000 4.101000 0.100000
$end
