
$comment
	potential surface scanner
$end

$rem
   JOBTYPE  PES_SCAN
   UNRESTRICTED TRUE
   SYM_IGNORE  TRUE
   GEOM_OPT_MAX_CYCLES 400
   SCF_MAX_CYCLES 400
   METHOD   B3LYP
   BASIS   6-31G**
   PDB_PRINT 2
   SCF_CONVERGENCE 6
   THRESH 14
   SCF_PRINT 1
$end
$molecule
0 1
S -1.353406 -0.000179 -0.001017
C 0.246594 -0.000011 -0.000539
C 1.066751 1.268254 0.000138
C 1.067022 -1.268100 0.000147
H 1.721889 1.293264 0.880904
H 1.728340 1.290791 -0.875812
H 0.435648 2.156725 -0.003191
H 0.436106 -2.156709 -0.001815
H 1.723326 -1.292358 0.880060
H 1.727460 -1.291108 -0.876665
$end
$scan
stre 1 2 1.700000 1.701000 0.100000
$end
