
$comment
	potential surface scanner
$end

$rem
   JOBTYPE  PES_SCAN
   UNRESTRICTED TRUE
   SYM_IGNORE  TRUE
   GEOM_OPT_MAX_CYCLES 400
   SCF_MAX_CYCLES 400
   METHOD   B3LYP
   BASIS   6-31G**
   PDB_PRINT 2
   SCF_CONVERGENCE 6
   THRESH 14
   SCF_PRINT 1
$end
$molecule
0 1
S -1.418819 -0.000184 -0.001450
C 0.281181 -0.000008 -0.000586
C 1.073696 1.274577 0.000190
C 1.073968 -1.274423 0.000212
H 1.729623 1.308476 0.880801
H 1.735747 1.306380 -0.875861
H 0.428971 2.152556 -0.002884
H 0.429429 -2.152543 -0.001563
H 1.731014 -1.307607 0.880010
H 1.734920 -1.306656 -0.876659
$end
$scan
stre 1 2 1.800000 1.801000 0.100000
$end
