
$comment
	potential surface scanner
$end

$rem
   JOBTYPE  PES_SCAN
   UNRESTRICTED TRUE
   SYM_IGNORE  TRUE
   GEOM_OPT_MAX_CYCLES 400
   SCF_MAX_CYCLES 400
   METHOD   B3LYP
   BASIS   6-31G**
   PDB_PRINT 2
   SCF_CONVERGENCE 6
   THRESH 14
   SCF_PRINT 1
$end
$molecule
0 1
S -1.702852 -0.000213 -0.002613
C 0.397147 0.000005 -0.000571
C 1.104398 1.294834 0.000317
C 1.104674 -1.294674 0.000383
H 1.762839 1.358099 0.880677
H 1.768141 1.356862 -0.876108
H 0.416683 2.138549 -0.002169
H 0.417140 -2.138540 -0.001019
H 1.764088 -1.357348 0.880050
H 1.767474 -1.357007 -0.876739
$end
$scan
stre 1 2 2.200000 2.201000 0.100000
$end
