
$comment
	potential surface scanner
$end

$rem
   JOBTYPE  PES_SCAN
   UNRESTRICTED TRUE
   SYM_IGNORE  TRUE
   GEOM_OPT_MAX_CYCLES 400
   SCF_MAX_CYCLES 400
   METHOD   B3LYP
   BASIS   6-31G**
   PDB_PRINT 2
   SCF_CONVERGENCE 6
   THRESH 14
   SCF_PRINT 1
$end
$molecule
0 1
S -2.117382 -0.000243 -0.003653
C 0.482616 0.000011 -0.000457
C 1.148614 1.300375 0.000418
C 1.148896 -1.300209 0.000520
H 1.809320 1.376817 0.881038
H 1.814202 1.376023 -0.876564
H 0.444440 2.131421 -0.001742
H 0.444903 -2.131412 -0.000601
H 1.810604 -1.376114 0.880427
H 1.813519 -1.376102 -0.877178
$end
$scan
stre 1 2 2.700000 2.701000 0.100000
$end
