
$comment
	potential surface scanner
$end

$rem
   JOBTYPE  PES_SCAN
   UNRESTRICTED TRUE
   SYM_IGNORE  TRUE
   GEOM_OPT_MAX_CYCLES 400
   SCF_MAX_CYCLES 400
   METHOD   B3LYP
   BASIS   6-31G**
   PDB_PRINT 2
   SCF_CONVERGENCE 6
   THRESH 14
   SCF_PRINT 1
$end
$molecule
0 1
S -2.513097 -0.000230 -0.003423
C 0.486902 -0.000001 -0.000630
C 1.186247 1.282333 0.000236
C 1.186543 -1.282172 0.000381
H 1.852320 1.336318 0.879293
H 1.858734 1.335536 -0.873932
H 0.514953 2.141261 -0.002283
H 0.515451 -2.141262 -0.000612
H 1.854275 -1.335505 0.878206
H 1.857406 -1.335712 -0.875026
$end
$scan
stre 1 2 3.100000 3.101000 0.100000
$end
