
$comment
	potential surface scanner
$end

$rem
   JOBTYPE  PES_SCAN
   UNRESTRICTED TRUE
   SYM_IGNORE  TRUE
   GEOM_OPT_MAX_CYCLES 400
   SCF_MAX_CYCLES 400
   METHOD   B3LYP
   BASIS   6-31G**
   PDB_PRINT 2
   SCF_CONVERGENCE 6
   THRESH 14
   SCF_PRINT 1
$end
$molecule
0 1
S -2.614842 -0.000236 -0.003133
C 0.485156 -0.000002 -0.000554
C 1.196263 1.277074 0.000122
C 1.196559 -1.276913 0.000280
H 1.863023 1.324684 0.878993
H 1.870381 1.323691 -0.873122
H 0.534333 2.143506 -0.002721
H 0.534831 -2.143504 -0.000715
H 1.865397 -1.323793 0.877594
H 1.868634 -1.323942 -0.874533
$end
$scan
stre 1 2 3.200000 3.201000 0.100000
$end
