
$comment
	potential surface scanner
$end

$rem
   JOBTYPE  PES_SCAN
   UNRESTRICTED TRUE
   SYM_IGNORE  TRUE
   GEOM_OPT_MAX_CYCLES 400
   SCF_MAX_CYCLES 400
   METHOD   B3LYP
   BASIS   6-31G**
   PDB_PRINT 2
   SCF_CONVERGENCE 6
   THRESH 14
   SCF_PRINT 1
$end
$molecule
0 1
S -1.556810 -0.000196 -0.002051
C 0.343189 -0.000002 -0.000602
C 1.088525 1.285721 0.000255
C 1.088800 -1.285564 0.000300
H 1.745734 1.335200 0.880761
H 1.751434 1.333592 -0.876019
H 0.420328 2.145161 -0.002496
H 0.420786 -2.145151 -0.001263
H 1.747055 -1.334393 0.880054
H 1.750689 -1.333800 -0.876731
$end
$scan
stre 1 2 2.000000 2.001000 0.100000
$end
