
$comment
	potential surface scanner
$end

$rem
   JOBTYPE  PES_SCAN
   UNRESTRICTED TRUE
   SYM_IGNORE  TRUE
   GEOM_OPT_MAX_CYCLES 400
   SCF_MAX_CYCLES 400
   METHOD   B3LYP
   BASIS   6-31G**
   PDB_PRINT 2
   SCF_CONVERGENCE 6
   THRESH 14
   SCF_PRINT 1
$end
$molecule
0 1
S -3.189508 -0.039807 1.044740
C 0.594464 0.006656 0.101659
C 1.345691 1.253550 0.011558
C 1.271608 -1.243107 -0.226960
H 1.019039 2.013589 0.727533
H 2.444851 1.183703 -0.043575
H 0.987772 1.623688 -0.971647
H 0.608189 -1.992008 -0.670121
H 1.484146 -1.628679 0.791364
H 2.233481 -1.177024 -0.762341
$end
$scan
stre 1 2 4.000000 4.001000 0.100000
$end
