
$comment
	potential surface scanner
$end

$rem
   JOBTYPE  PES_SCAN
   UNRESTRICTED TRUE
   SYM_IGNORE  TRUE
   GEOM_OPT_MAX_CYCLES 400
   SCF_MAX_CYCLES 400
   METHOD   B3LYP
   BASIS   6-31G**
   PDB_PRINT 2
   SCF_CONVERGENCE 6
   THRESH 14
   SCF_PRINT 1
$end
$molecule
0 1
S -2.211235 -0.000245 -0.003744
C 0.488763 0.000010 -0.000471
C 1.157705 1.297597 0.000409
C 1.157988 -1.297431 0.000521
H 1.819714 1.371072 0.880707
H 1.824706 1.370325 -0.876149
H 0.458299 2.132951 -0.001749
H 0.458767 -2.132943 -0.000553
H 1.821070 -1.370362 0.880049
H 1.823955 -1.370408 -0.876811
$end
$scan
stre 1 2 2.800000 2.801000 0.100000
$end
