
$comment
	potential surface scanner
$end

$rem
   JOBTYPE  PES_SCAN
   UNRESTRICTED TRUE
   SYM_IGNORE  TRUE
   GEOM_OPT_MAX_CYCLES 400
   SCF_MAX_CYCLES 400
   METHOD   B3LYP
   BASIS   6-31G**
   PDB_PRINT 2
   SCF_CONVERGENCE 6
   THRESH 14
   SCF_PRINT 1
$end
$molecule
0 1
S -3.098558 -0.037943 1.022886
C 0.588114 0.006339 0.102840
C 1.335546 1.254722 0.013823
C 1.262291 -1.244590 -0.224372
H 1.005889 2.013295 0.729842
H 2.434653 1.186380 -0.040096
H 0.977584 1.624431 -0.969582
H 0.597038 -1.991325 -0.668279
H 1.472676 -1.631289 0.793977
H 2.224500 -1.179457 -0.758828
$end
$scan
stre 1 2 3.900000 3.901000 0.100000
$end
