
$comment
	potential surface scanner
$end

$rem
   JOBTYPE  PES_SCAN
   UNRESTRICTED TRUE
   SYM_IGNORE  TRUE
   GEOM_OPT_MAX_CYCLES 400
   SCF_MAX_CYCLES 400
   METHOD   B3LYP
   BASIS   6-31G**
   PDB_PRINT 2
   SCF_CONVERGENCE 6
   THRESH 14
   SCF_PRINT 1
$end
$molecule
0 1
S -1.858675 -0.000227 -0.003112
C 0.441324 0.000010 -0.000521
C 1.121567 1.300530 0.000373
C 1.121844 -1.300366 0.000455
H 1.780588 1.373975 0.880925
H 1.785589 1.372993 -0.876470
H 0.420135 2.133096 -0.001917
H 0.420593 -2.133088 -0.000814
H 1.781805 -1.373259 0.880344
H 1.784963 -1.373095 -0.877055
$end
$scan
stre 1 2 2.400000 2.401000 0.100000
$end
