
$comment
	potential surface scanner
$end

$rem
   JOBTYPE  PES_SCAN
   UNRESTRICTED TRUE
   SYM_IGNORE  TRUE
   GEOM_OPT_MAX_CYCLES 400
   SCF_MAX_CYCLES 400
   METHOD   B3LYP
   BASIS   6-31G**
   PDB_PRINT 2
   SCF_CONVERGENCE 6
   THRESH 14
   SCF_PRINT 1
$end
$molecule
0 1
S -1.629014 -0.000205 -0.002326
C 0.370985 0.000002 -0.000591
C 1.096345 1.290505 0.000285
C 1.096620 -1.290346 0.000340
H 1.754158 1.347000 0.880747
H 1.759663 1.345585 -0.876091
H 0.418058 2.141847 -0.002333
H 0.418515 -2.141837 -0.001142
H 1.755442 -1.346222 0.880081
H 1.758959 -1.345761 -0.876762
$end
$scan
stre 1 2 2.100000 2.101000 0.100000
$end
