
$comment
	potential surface scanner
$end

$rem
   JOBTYPE  PES_SCAN
   UNRESTRICTED TRUE
   SYM_IGNORE  TRUE
   GEOM_OPT_MAX_CYCLES 400
   SCF_MAX_CYCLES 400
   METHOD   B3LYP
   BASIS   6-31G**
   PDB_PRINT 2
   SCF_CONVERGENCE 6
   THRESH 14
   SCF_PRINT 1
$end
$molecule
0 1
S -2.027680 -0.000240 -0.003512
C 0.472318 0.000011 -0.000462
C 1.139466 1.301538 0.000411
C 1.139746 -1.301372 0.000507
H 1.799337 1.378615 0.881168
H 1.804200 1.377769 -0.876732
H 0.433875 2.131111 -0.001773
H 0.434335 -2.131102 -0.000659
H 1.800582 -1.377913 0.880581
H 1.803553 -1.377850 -0.877322
$end
$scan
stre 1 2 2.600000 2.601000 0.100000
$end
