
$comment
	potential surface scanner
$end

$rem
   JOBTYPE  PES_SCAN
   UNRESTRICTED TRUE
   SYM_IGNORE  TRUE
   GEOM_OPT_MAX_CYCLES 400
   SCF_MAX_CYCLES 400
   METHOD   B3LYP
   BASIS   6-31G**
   PDB_PRINT 2
   SCF_CONVERGENCE 6
   THRESH 14
   SCF_PRINT 1
$end
$molecule
0 1
S 3.613158 0.689045 -0.098907
C -0.887038 0.353360 0.003698
C 0.012319 -0.806205 -0.008459
C -2.376841 -0.122387 0.072213
H -0.687080 0.986308 0.873917
H -0.758549 0.953100 -0.902794
H 0.327118 -1.282931 0.913932
H 0.268774 -1.312659 -0.933307
H -2.564402 -0.705411 0.977311
H -3.024793 0.758995 0.085546
H -2.637543 -0.732446 -0.796212
H 3.427478 1.125034 -1.363933
$end
$scan
stre 1 3 4.000000 4.001000 0.100000
$end
