
$comment
	potential surface scanner
$end

$rem
   JOBTYPE  PES_SCAN
   UNRESTRICTED TRUE
   SYM_IGNORE  TRUE
   GEOM_OPT_MAX_CYCLES 400
   SCF_MAX_CYCLES 400
   METHOD   B3LYP
   BASIS   6-31G**
   PDB_PRINT 2
   SCF_CONVERGENCE 6
   THRESH 14
   SCF_PRINT 1
$end
$molecule
0 3
S 3.074208 -1.154639 -0.811981
C -0.850440 0.675469 0.155061
C 0.537837 0.096713 -0.170936
C -1.980428 -0.338326 -0.037609
H -0.853360 1.041127 1.189649
H -1.030796 1.552818 -0.479313
H 0.750539 -0.760637 0.478833
H 0.566393 -0.248872 -1.210173
H -1.852141 -1.206451 0.619121
H -2.956944 0.104552 0.184365
H -2.008765 -0.707634 -1.069102
H 1.316503 0.849678 -0.024909
$end
$scan
stre 1 3 2.800000 2.801000 0.100000
$end
