
$comment
	potential surface scanner
$end

$rem
   JOBTYPE  PES_SCAN
   UNRESTRICTED TRUE
   SYM_IGNORE  TRUE
   GEOM_OPT_MAX_CYCLES 400
   SCF_MAX_CYCLES 400
   METHOD   B3LYP
   BASIS   6-31G**
   PDB_PRINT 2
   SCF_CONVERGENCE 6
   THRESH 14
   SCF_PRINT 1
$end
$molecule
0 1
S 3.536775 0.665621 -0.087265
C -0.872322 0.360934 0.001500
C 0.030337 -0.796924 -0.010763
C -2.359543 -0.120941 0.069395
H -0.673946 0.993766 0.871998
H -0.744534 0.961684 -0.904236
H 0.338367 -1.278143 0.911545
H 0.285862 -1.304011 -0.935489
H -2.545160 -0.705444 0.974029
H -3.011625 0.757392 0.083401
H -2.618089 -0.731477 -0.799424
H 3.346479 1.101347 -1.351686
$end
$scan
stre 1 3 3.900000 3.901000 0.100000
$end
