
$comment
	potential surface scanner
$end

$rem
   JOBTYPE  PES_SCAN
   UNRESTRICTED TRUE
   SYM_IGNORE  TRUE
   GEOM_OPT_MAX_CYCLES 400
   SCF_MAX_CYCLES 400
   METHOD   B3LYP
   BASIS   6-31G**
   PDB_PRINT 2
   SCF_CONVERGENCE 6
   THRESH 14
   SCF_PRINT 1
$end
$molecule
0 1
S 2.597579 0.333007 -0.008025
C -0.690735 0.462019 -0.002706
C 0.301827 -0.656698 -0.010309
C -2.129432 -0.103776 0.019721
H -0.528579 1.097254 0.872556
H -0.560481 1.089565 -0.889708
H 0.422044 -1.230769 0.903999
H 0.404192 -1.246132 -0.916945
H -2.302726 -0.719321 0.908109
H -2.853724 0.716564 0.031931
H -2.332015 -0.718946 -0.862841
H 2.384652 0.881033 -1.222780
$end
$scan
stre 1 3 2.600000 2.601000 0.100000
$end
