
$comment
	potential surface scanner
$end

$rem
   JOBTYPE  PES_SCAN
   UNRESTRICTED TRUE
   SYM_IGNORE  TRUE
   GEOM_OPT_MAX_CYCLES 400
   SCF_MAX_CYCLES 400
   METHOD   B3LYP
   BASIS   6-31G**
   PDB_PRINT 2
   SCF_CONVERGENCE 6
   THRESH 14
   SCF_PRINT 1
$end
$molecule
0 3
S 3.628906 0.780813 -0.099033
C -0.910002 0.291672 -0.003072
C -0.003172 -0.893104 -0.021478
C -2.409735 -0.078193 0.086554
H -0.659385 0.940077 0.846174
H -0.757497 0.892705 -0.910055
H 0.381375 -1.319162 0.899104
H 0.161481 -1.451724 -0.937600
H -2.620652 -0.644679 0.999177
H -3.033205 0.822998 0.093696
H -2.714131 -0.693982 -0.765946
H 3.648621 1.256381 -1.364518
$end
$scan
stre 1 3 3.900000 3.901000 0.100000
$end
