
$comment
	potential surface scanner
$end

$rem
   JOBTYPE  PES_SCAN
   UNRESTRICTED TRUE
   SYM_IGNORE  TRUE
   GEOM_OPT_MAX_CYCLES 400
   SCF_MAX_CYCLES 400
   METHOD   B3LYP
   BASIS   6-31G**
   PDB_PRINT 2
   SCF_CONVERGENCE 6
   THRESH 14
   SCF_PRINT 1
$end
$molecule
0 1
S 3.304781 0.600551 -0.050632
C -0.825419 0.381555 -0.006664
C 0.085798 -0.773171 -0.018435
C -2.305555 -0.114081 0.061450
H -0.628690 1.015110 0.863127
H -0.698985 0.983951 -0.910927
H 0.367332 -1.270651 0.903575
H 0.333348 -1.285614 -0.942242
H -2.486499 -0.700390 0.966162
H -2.967978 0.756525 0.075830
H -2.560116 -0.727448 -0.806854
H 3.094584 1.037463 -1.311386
$end
$scan
stre 1 3 3.600000 3.601000 0.100000
$end
