
$comment
	potential surface scanner
$end

$rem
   JOBTYPE  PES_SCAN
   UNRESTRICTED TRUE
   SYM_IGNORE  TRUE
   GEOM_OPT_MAX_CYCLES 400
   SCF_MAX_CYCLES 400
   METHOD   B3LYP
   BASIS   6-31G**
   PDB_PRINT 2
   SCF_CONVERGENCE 6
   THRESH 14
   SCF_PRINT 1
$end
$molecule
0 3
S 4.441397 1.029049 -0.150804
C -1.041771 0.248934 -0.012405
C -0.149714 -0.947245 -0.024433
C -2.542683 -0.102360 0.125077
H -0.764784 0.913381 0.816961
H -0.903845 0.826703 -0.935843
H 0.171175 -1.413060 0.901957
H 0.056003 -1.480306 -0.947409
H -2.734271 -0.647580 1.054760
H -3.155678 0.805865 0.130810
H -2.876077 -0.732101 -0.705903
H 4.212850 1.402519 -1.429764
$end
$scan
stre 1 3 4.900000 4.901000 0.100000
$end
