
$comment
	potential surface scanner
$end

$rem
   JOBTYPE  PES_SCAN
   UNRESTRICTED TRUE
   SYM_IGNORE  TRUE
   GEOM_OPT_MAX_CYCLES 400
   SCF_MAX_CYCLES 400
   METHOD   B3LYP
   BASIS   6-31G**
   PDB_PRINT 2
   SCF_CONVERGENCE 6
   THRESH 14
   SCF_PRINT 1
$end
$molecule
0 1
S 2.942623 0.464385 -0.029447
C -0.753412 0.420725 -0.004260
C 0.187085 -0.721675 -0.013036
C -2.216020 -0.107191 0.038698
H -0.573408 1.053241 0.869242
H -0.621221 1.034518 -0.899686
H 0.406864 -1.251436 0.907450
H 0.388851 -1.261487 -0.931890
H -2.398266 -0.704755 0.936510
H -2.905319 0.742572 0.048746
H -2.445566 -0.722412 -0.836106
H 2.700391 0.957314 -1.263219
$end
$scan
stre 1 3 3.100000 3.101000 0.100000
$end
