
$comment
	potential surface scanner
$end

$rem
   JOBTYPE  PES_SCAN
   UNRESTRICTED TRUE
   SYM_IGNORE  TRUE
   GEOM_OPT_MAX_CYCLES 400
   SCF_MAX_CYCLES 400
   METHOD   B3LYP
   BASIS   6-31G**
   PDB_PRINT 2
   SCF_CONVERGENCE 6
   THRESH 14
   SCF_PRINT 1
$end
$molecule
0 3
S 4.363764 0.998171 -0.144557
C -1.031933 0.254511 -0.011404
C -0.135689 -0.938486 -0.025025
C -2.531921 -0.102330 0.122008
H -0.758586 0.917947 0.819814
H -0.894547 0.834787 -0.933464
H 0.199478 -1.396186 0.900253
H 0.063453 -1.475236 -0.947320
H -2.723640 -0.650400 1.049975
H -3.148165 0.803701 0.128370
H -2.861315 -0.731326 -0.711156
H 4.171704 1.388645 -1.424491
$end
$scan
stre 1 3 4.800000 4.801000 0.100000
$end
