
$comment
	potential surface scanner
$end

$rem
   JOBTYPE  PES_SCAN
   UNRESTRICTED TRUE
   SYM_IGNORE  TRUE
   GEOM_OPT_MAX_CYCLES 400
   SCF_MAX_CYCLES 400
   METHOD   B3LYP
   BASIS   6-31G**
   PDB_PRINT 2
   SCF_CONVERGENCE 6
   THRESH 14
   SCF_PRINT 1
$end
$molecule
0 1
S 3.834075 0.769535 -0.120153
C -0.929555 0.326976 -0.000503
C -0.043382 -0.840860 -0.010815
C -2.427584 -0.123657 0.088041
H -0.714724 0.965289 0.862915
H -0.803744 0.917371 -0.913820
H 0.281262 -1.308433 0.912974
H 0.216384 -1.346504 -0.935162
H -2.613912 -0.695245 1.000474
H -3.059728 0.769139 0.099973
H -2.706310 -0.737053 -0.772163
H 3.679821 1.207245 -1.388755
$end
$scan
stre 1 3 4.300000 4.301000 0.100000
$end
