
$comment
	potential surface scanner
$end

$rem
   JOBTYPE  PES_SCAN
   UNRESTRICTED TRUE
   SYM_IGNORE  TRUE
   GEOM_OPT_MAX_CYCLES 400
   SCF_MAX_CYCLES 400
   METHOD   B3LYP
   BASIS   6-31G**
   PDB_PRINT 2
   SCF_CONVERGENCE 6
   THRESH 14
   SCF_PRINT 1
$end
$molecule
0 1
S 2.731130 0.386284 -0.017756
C -0.712855 0.445063 -0.002830
C 0.253324 -0.686293 -0.010085
C -2.162746 -0.104033 0.025905
H -0.543483 1.078354 0.872115
H -0.580132 1.066320 -0.893288
H 0.421328 -1.239536 0.908354
H 0.399605 -1.256331 -0.922118
H -2.341830 -0.712401 0.917611
H -2.871470 0.729734 0.036929
H -2.376092 -0.718234 -0.854316
H 2.495824 0.914872 -1.237518
$end
$scan
stre 1 3 2.800000 2.801000 0.100000
$end
