
$comment
	potential surface scanner
$end

$rem
   JOBTYPE  PES_SCAN
   UNRESTRICTED TRUE
   SYM_IGNORE  TRUE
   GEOM_OPT_MAX_CYCLES 400
   SCF_MAX_CYCLES 400
   METHOD   B3LYP
   BASIS   6-31G**
   PDB_PRINT 2
   SCF_CONVERGENCE 6
   THRESH 14
   SCF_PRINT 1
$end
$molecule
0 1
S 3.762043 0.740715 -0.115450
C -0.915427 0.336405 0.002629
C -0.024389 -0.828198 -0.008473
C -2.410712 -0.123732 0.081419
H -0.707439 0.972021 0.869435
H -0.787617 0.931041 -0.907566
H 0.298050 -1.298188 0.914779
H 0.234328 -1.333790 -0.933105
H -2.598575 -0.700147 0.990534
H -3.048677 0.764904 0.093664
H -2.681529 -0.735360 -0.782625
H 3.592549 1.178132 -1.382234
$end
$scan
stre 1 3 4.200000 4.201000 0.100000
$end
