
$comment
	potential surface scanner
$end

$rem
   JOBTYPE  PES_SCAN
   UNRESTRICTED TRUE
   SYM_IGNORE  TRUE
   GEOM_OPT_MAX_CYCLES 400
   SCF_MAX_CYCLES 400
   METHOD   B3LYP
   BASIS   6-31G**
   PDB_PRINT 2
   SCF_CONVERGENCE 6
   THRESH 14
   SCF_PRINT 1
$end
$molecule
0 1
S 2.870070 0.438173 -0.024561
C -0.739321 0.428021 -0.004532
C 0.207844 -0.711787 -0.012741
C -2.198595 -0.105617 0.034626
H -0.562016 1.060709 0.869250
H -0.607169 1.043269 -0.898970
H 0.415326 -1.246703 0.907689
H 0.392735 -1.261773 -0.929279
H -2.380068 -0.706221 0.930715
H -2.893073 0.739941 0.045163
H -2.423942 -0.720413 -0.841746
H 2.630809 0.946200 -1.252612
$end
$scan
stre 1 3 3.000000 3.001000 0.100000
$end
