
$comment
	potential surface scanner
$end

$rem
   JOBTYPE  PES_SCAN
   UNRESTRICTED TRUE
   SYM_IGNORE  TRUE
   GEOM_OPT_MAX_CYCLES 400
   SCF_MAX_CYCLES 400
   METHOD   B3LYP
   BASIS   6-31G**
   PDB_PRINT 2
   SCF_CONVERGENCE 6
   THRESH 14
   SCF_PRINT 1
$end
$molecule
0 3
S 3.225181 0.984789 -0.364150
C -0.734368 0.422207 -0.038657
C 0.259556 -0.673918 -0.246840
C -2.183240 -0.106657 0.086407
H -0.487371 0.985318 0.869927
H -0.689576 1.133438 -0.872452
H 0.560818 -1.294603 0.594001
H 0.378682 -1.116346 -1.233159
H -2.278939 -0.796669 0.930636
H -2.881556 0.721990 0.244325
H -2.487890 -0.639922 -0.819498
H 2.031310 0.284172 -0.327536
$end
$scan
stre 1 3 3.300000 3.301000 0.100000
$end
