
$comment
	potential surface scanner
$end

$rem
   JOBTYPE  PES_SCAN
   UNRESTRICTED TRUE
   SYM_IGNORE  TRUE
   GEOM_OPT_MAX_CYCLES 400
   SCF_MAX_CYCLES 400
   METHOD   B3LYP
   BASIS   6-31G**
   PDB_PRINT 2
   SCF_CONVERGENCE 6
   THRESH 14
   SCF_PRINT 1
$end
$molecule
0 3
S 3.092831 0.935749 -0.355249
C -0.705642 0.447452 -0.037927
C 0.306935 -0.634966 -0.247360
C -2.142884 -0.109857 0.081236
H -0.468021 1.011372 0.872188
H -0.668762 1.161216 -0.869630
H 0.571561 -1.276095 0.591976
H 0.384485 -1.102390 -1.227545
H -2.229162 -0.802371 0.924521
H -2.856888 0.705421 0.237881
H -2.435339 -0.647128 -0.826409
H 1.863493 0.215395 -0.320676
$end
$scan
stre 1 3 3.100000 3.101000 0.100000
$end
