
$comment
	potential surface scanner
$end

$rem
   JOBTYPE  PES_SCAN
   UNRESTRICTED TRUE
   SYM_IGNORE  TRUE
   GEOM_OPT_MAX_CYCLES 400
   SCF_MAX_CYCLES 400
   METHOD   B3LYP
   BASIS   6-31G**
   PDB_PRINT 2
   SCF_CONVERGENCE 6
   THRESH 14
   SCF_PRINT 1
$end
$molecule
0 3
S 3.592568 -1.033398 -0.826616
C -1.586630 0.919710 0.298137
C 1.766625 -0.319045 -0.432116
C -2.509119 -0.222614 0.051084
H -1.231285 1.138631 1.299814
H -1.422881 1.674402 -0.464166
H 1.388060 -0.951000 0.372940
H 1.160504 -0.422632 -1.329081
H -2.286649 -1.076155 0.701186
H -3.561591 0.048856 0.244526
H -2.466136 -0.565807 -0.988746
H 1.869141 0.712849 -0.103955
$end
$scan
stre 1 3 1.900000 1.901000 0.100000
$end
