
$comment
	potential surface scanner
$end

$rem
   JOBTYPE  PES_SCAN
   UNRESTRICTED TRUE
   SYM_IGNORE  TRUE
   GEOM_OPT_MAX_CYCLES 400
   SCF_MAX_CYCLES 400
   METHOD   B3LYP
   BASIS   6-31G**
   PDB_PRINT 2
   SCF_CONVERGENCE 6
   THRESH 14
   SCF_PRINT 1
$end
$molecule
0 1
S 3.232604 0.572756 -0.041998
C -0.811938 0.390496 -0.008296
C 0.105287 -0.761183 -0.019778
C -2.288118 -0.113652 0.058381
H -0.618272 1.024137 0.861980
H -0.686385 0.994662 -0.911296
H 0.373770 -1.265543 0.902069
H 0.350331 -1.274405 -0.943291
H -2.466307 -0.701983 0.962461
H -2.956727 0.752241 0.073460
H -2.539209 -0.727943 -0.810406
H 3.017564 1.014216 -1.300282
$end
$scan
stre 1 3 3.500000 3.501000 0.100000
$end
