
$comment
	potential surface scanner
$end

$rem
   JOBTYPE  PES_SCAN
   UNRESTRICTED TRUE
   SYM_IGNORE  TRUE
   GEOM_OPT_MAX_CYCLES 400
   SCF_MAX_CYCLES 400
   METHOD   B3LYP
   BASIS   6-31G**
   PDB_PRINT 2
   SCF_CONVERGENCE 6
   THRESH 14
   SCF_PRINT 1
$end
$molecule
0 3
S 4.749791 1.154224 -0.186281
C -1.079886 0.223577 -0.011410
C -0.205596 -0.984959 -0.018855
C -2.585734 -0.101636 0.133116
H -0.790400 0.888629 0.814420
H -0.934944 0.797103 -0.936556
H 0.072367 -1.473007 0.910150
H 0.023858 -1.503895 -0.944140
H -2.784785 -0.636149 1.067606
H -3.182177 0.817186 0.133998
H -2.932680 -0.731375 -0.692377
H 4.362791 1.454103 -1.446664
$end
$scan
stre 1 3 5.300000 5.301000 0.100000
$end
