
$comment
	potential surface scanner
$end

$rem
   JOBTYPE  PES_SCAN
   UNRESTRICTED TRUE
   SYM_IGNORE  TRUE
   GEOM_OPT_MAX_CYCLES 400
   SCF_MAX_CYCLES 400
   METHOD   B3LYP
   BASIS   6-31G**
   PDB_PRINT 2
   SCF_CONVERGENCE 6
   THRESH 14
   SCF_PRINT 1
$end
$molecule
0 3
S 4.517793 1.062050 -0.157186
C -1.050562 0.241606 -0.012731
C -0.163260 -0.957835 -0.023724
C -2.553275 -0.101477 0.128096
H -0.769224 0.907463 0.814259
H -0.912325 0.816152 -0.938139
H 0.145095 -1.431340 0.903104
H 0.047000 -1.487111 -0.947885
H -2.746716 -0.642166 1.059990
H -3.160635 0.810501 0.131632
H -2.891046 -0.731469 -0.700827
H 4.249757 1.417427 -1.433584
$end
$scan
stre 1 3 5.000000 5.001000 0.100000
$end
