
$comment
	potential surface scanner
$end

$rem
   JOBTYPE  PES_SCAN
   UNRESTRICTED TRUE
   SYM_IGNORE  TRUE
   GEOM_OPT_MAX_CYCLES 400
   SCF_MAX_CYCLES 400
   METHOD   B3LYP
   BASIS   6-31G**
   PDB_PRINT 2
   SCF_CONVERGENCE 6
   THRESH 14
   SCF_PRINT 1
$end
$molecule
0 1
S 3.159333 0.545064 -0.036934
C -0.797775 0.398244 -0.008037
C 0.124598 -0.751111 -0.019163
C -2.270773 -0.112334 0.054107
H -0.607398 1.031550 0.863026
H -0.671632 1.004482 -0.909463
H 0.383728 -1.261000 0.902267
H 0.363137 -1.268856 -0.941800
H -2.449110 -0.702541 0.957058
H -2.944387 0.749714 0.068240
H -2.517164 -0.727153 -0.815796
H 2.940042 0.997740 -1.290503
$end
$scan
stre 1 3 3.400000 3.401000 0.100000
$end
