
$comment
	potential surface scanner
$end

$rem
   JOBTYPE  PES_SCAN
   UNRESTRICTED TRUE
   SYM_IGNORE  TRUE
   GEOM_OPT_MAX_CYCLES 400
   SCF_MAX_CYCLES 400
   METHOD   B3LYP
   BASIS   6-31G**
   PDB_PRINT 2
   SCF_CONVERGENCE 6
   THRESH 14
   SCF_PRINT 1
$end
$molecule
0 1
S 2.346703 0.201991 0.005991
C -0.648727 0.492424 -0.010542
C 0.404643 -0.596569 -0.020588
C -2.065264 -0.105156 0.013275
H -0.497618 1.136901 0.861330
H -0.532312 1.127481 -0.896251
H 0.413047 -1.208536 0.881864
H 0.389733 -1.229746 -0.907386
H -2.222161 -0.720972 0.905399
H -2.819676 0.687773 0.018079
H -2.248486 -0.735360 -0.863748
H 2.192719 0.853569 -1.164423
$end
$scan
stre 1 3 2.200000 2.201000 0.100000
$end
