
$comment
	potential surface scanner
$end

$rem
   JOBTYPE  PES_SCAN
   UNRESTRICTED TRUE
   SYM_IGNORE  TRUE
   GEOM_OPT_MAX_CYCLES 400
   SCF_MAX_CYCLES 400
   METHOD   B3LYP
   BASIS   6-31G**
   PDB_PRINT 2
   SCF_CONVERGENCE 6
   THRESH 14
   SCF_PRINT 1
$end
$molecule
0 3
S 2.994539 -1.121117 -0.793224
C -0.842374 0.671990 0.153457
C 0.547932 0.091193 -0.173209
C -1.973217 -0.340179 -0.039237
H -0.843146 1.037881 1.187875
H -1.019673 1.549256 -0.481805
H 0.755876 -0.765335 0.479444
H 0.569045 -0.254723 -1.212663
H -1.845569 -1.209195 0.616406
H -2.948874 0.103820 0.184411
H -2.003433 -0.708129 -1.071135
H 1.321500 0.848336 -0.027314
$end
$scan
stre 1 3 2.700000 2.701000 0.100000
$end
