
$comment
	potential surface scanner
$end

$rem
   JOBTYPE  PES_SCAN
   UNRESTRICTED TRUE
   SYM_IGNORE  TRUE
   GEOM_OPT_MAX_CYCLES 400
   SCF_MAX_CYCLES 400
   METHOD   B3LYP
   BASIS   6-31G**
   PDB_PRINT 2
   SCF_CONVERGENCE 6
   THRESH 14
   SCF_PRINT 1
$end
$molecule
0 3
S 3.154485 0.962492 -0.360365
C -0.719648 0.433164 -0.037980
C 0.281683 -0.657411 -0.246668
C -2.164017 -0.107315 0.083660
H -0.476934 0.996233 0.871585
H -0.677676 1.145826 -0.870585
H 0.568578 -1.286290 0.593718
H 0.382961 -1.110972 -1.230439
H -2.256370 -0.798726 0.927145
H -2.868751 0.715928 0.241038
H -2.463234 -0.641820 -0.823357
H 1.951529 0.252689 -0.324747
$end
$scan
stre 1 3 3.200000 3.201000 0.100000
$end
