
$comment
	potential surface scanner
$end

$rem
   JOBTYPE  PES_SCAN
   UNRESTRICTED TRUE
   SYM_IGNORE  TRUE
   GEOM_OPT_MAX_CYCLES 400
   SCF_MAX_CYCLES 400
   METHOD   B3LYP
   BASIS   6-31G**
   PDB_PRINT 2
   SCF_CONVERGENCE 6
   THRESH 14
   SCF_PRINT 1
$end
$molecule
0 3
S 2.684544 -0.992797 -0.725985
C -0.806678 0.658312 0.146182
C 0.599379 0.065028 -0.184601
C -1.940139 -0.348624 -0.046022
H -0.798073 1.023807 1.180410
H -0.972687 1.535610 -0.491601
H 0.754386 -0.783478 0.488136
H 0.562873 -0.271688 -1.224133
H -1.817104 -1.218371 0.609506
H -2.913179 0.100571 0.178752
H -1.974187 -0.715965 -1.078037
H 1.333468 0.851392 -0.029601
$end
$scan
stre 1 3 2.300000 2.301000 0.100000
$end
