
$comment
	potential surface scanner
$end

$rem
   JOBTYPE  PES_SCAN
   UNRESTRICTED TRUE
   SYM_IGNORE  TRUE
   GEOM_OPT_MAX_CYCLES 400
   SCF_MAX_CYCLES 400
   METHOD   B3LYP
   BASIS   6-31G**
   PDB_PRINT 2
   SCF_CONVERGENCE 6
   THRESH 14
   SCF_PRINT 1
$end
$molecule
0 1
S 2.161740 0.107377 0.015724
C -0.625754 0.516939 -0.013251
C 0.483313 -0.541207 -0.031423
C -2.023287 -0.112027 0.009648
H -0.486214 1.166146 0.858448
H -0.523062 1.159757 -0.897024
H 0.408351 -1.174071 0.859868
H 0.363768 -1.205149 -0.894311
H -2.162773 -0.735563 0.899895
H -2.802239 0.656691 0.016920
H -2.189816 -0.746464 -0.868184
H 2.108574 0.811371 -1.133309
$end
$scan
stre 1 3 1.900000 1.901000 0.100000
$end
