
$comment
	potential surface scanner
$end

$rem
   JOBTYPE  PES_SCAN
   UNRESTRICTED TRUE
   SYM_IGNORE  TRUE
   GEOM_OPT_MAX_CYCLES 400
   SCF_MAX_CYCLES 400
   METHOD   B3LYP
   BASIS   6-31G**
   PDB_PRINT 2
   SCF_CONVERGENCE 6
   THRESH 14
   SCF_PRINT 1
$end
$molecule
0 3
S 4.203972 0.940374 -0.127458
C -1.010207 0.262909 -0.014802
C -0.108555 -0.925844 -0.030817
C -2.508755 -0.099725 0.118741
H -0.738221 0.925849 0.816996
H -0.876889 0.845904 -0.935989
H 0.255375 -1.363709 0.893020
H 0.074335 -1.474792 -0.949273
H -2.698288 -0.650158 1.045745
H -3.128225 0.804116 0.126909
H -2.836486 -0.728226 -0.715505
H 4.084546 1.367102 -1.404567
$end
$scan
stre 1 3 4.600000 4.601000 0.100000
$end
