
$comment
	potential surface scanner
$end

$rem
   JOBTYPE  PES_SCAN
   UNRESTRICTED TRUE
   SYM_IGNORE  TRUE
   GEOM_OPT_MAX_CYCLES 400
   SCF_MAX_CYCLES 400
   METHOD   B3LYP
   BASIS   6-31G**
   PDB_PRINT 2
   SCF_CONVERGENCE 6
   THRESH 14
   SCF_PRINT 1
$end
$molecule
0 3
S 4.122727 0.914016 -0.117024
C -0.998706 0.267079 -0.017999
C -0.095014 -0.920097 -0.035179
C -2.496379 -0.097951 0.118370
H -0.725963 0.931038 0.812632
H -0.868284 0.849824 -0.939860
H 0.280991 -1.350130 0.887430
H 0.078233 -1.475496 -0.951653
H -2.683417 -0.648215 1.045977
H -3.117408 0.804825 0.127057
H -2.824576 -0.727457 -0.714960
H 4.040399 1.356364 -1.391790
$end
$scan
stre 1 3 4.500000 4.501000 0.100000
$end
