
$comment
	potential surface scanner
$end

$rem
   JOBTYPE  PES_SCAN
   UNRESTRICTED TRUE
   SYM_IGNORE  TRUE
   GEOM_OPT_MAX_CYCLES 400
   SCF_MAX_CYCLES 400
   METHOD   B3LYP
   BASIS   6-31G**
   PDB_PRINT 2
   SCF_CONVERGENCE 6
   THRESH 14
   SCF_PRINT 1
$end
$molecule
0 1
S 3.688806 0.713401 -0.108929
C -0.901566 0.345351 0.004538
C -0.005764 -0.816245 -0.007278
C -2.393978 -0.123446 0.075981
H -0.698688 0.979172 0.873641
H -0.773066 0.943232 -0.903340
H 0.314101 -1.289386 0.915267
H 0.251877 -1.322093 -0.932168
H -2.582670 -0.704022 0.982340
H -3.037424 0.761234 0.088580
H -2.658237 -0.733746 -0.791120
H 3.509211 1.150351 -1.374506
$end
$scan
stre 1 3 4.100000 4.101000 0.100000
$end
