
$comment
	potential surface scanner
$end

$rem
   JOBTYPE  PES_SCAN
   UNRESTRICTED TRUE
   SYM_IGNORE  TRUE
   GEOM_OPT_MAX_CYCLES 400
   SCF_MAX_CYCLES 400
   METHOD   B3LYP
   BASIS   6-31G**
   PDB_PRINT 2
   SCF_CONVERGENCE 6
   THRESH 14
   SCF_PRINT 1
$end
$molecule
0 3
S 3.297947 1.007538 -0.365700
C -0.748710 0.412287 -0.040124
C 0.238805 -0.688870 -0.248025
C -2.201123 -0.106488 0.089570
H -0.497064 0.975984 0.866995
H -0.702041 1.121731 -0.875409
H 0.549047 -1.304354 0.592944
H 0.371658 -1.122169 -1.236260
H -2.298983 -0.794515 0.935164
H -2.893835 0.726845 0.247777
H -2.511226 -0.639507 -0.814611
H 2.108133 0.315319 -0.329315
$end
$scan
stre 1 3 3.400000 3.401000 0.100000
$end
