
$comment
	potential surface scanner
$end

$rem
   JOBTYPE  PES_SCAN
   UNRESTRICTED TRUE
   SYM_IGNORE  TRUE
   GEOM_OPT_MAX_CYCLES 400
   SCF_MAX_CYCLES 400
   METHOD   B3LYP
   BASIS   6-31G**
   PDB_PRINT 2
   SCF_CONVERGENCE 6
   THRESH 14
   SCF_PRINT 1
$end
$molecule
0 1
S 3.905390 0.799262 -0.123576
C -0.944132 0.317465 -0.004388
C -0.062750 -0.853575 -0.014072
C -2.444608 -0.123613 0.095431
H -0.721546 0.958848 0.855046
H -0.821234 0.903199 -0.921175
H 0.264592 -1.318558 0.910139
H 0.197458 -1.359714 -0.938055
H -2.628577 -0.690158 1.011438
H -3.071022 0.773213 0.107292
H -2.731979 -0.738977 -0.760453
H 3.771012 1.236410 -1.394622
$end
$scan
stre 1 3 4.400000 4.401000 0.100000
$end
