
$comment
	potential surface scanner
$end

$rem
   JOBTYPE  PES_SCAN
   UNRESTRICTED TRUE
   SYM_IGNORE  TRUE
   GEOM_OPT_MAX_CYCLES 400
   SCF_MAX_CYCLES 400
   METHOD   B3LYP
   BASIS   6-31G**
   PDB_PRINT 2
   SCF_CONVERGENCE 6
   THRESH 14
   SCF_PRINT 1
$end
$molecule
0 1
S 4.126439 0.881136 -0.133305
C -0.990717 0.292564 -0.016989
C -0.119576 -0.885104 -0.024923
C -2.495534 -0.126566 0.117500
H -0.746929 0.942648 0.830847
H -0.878394 0.865197 -0.943573
H 0.217992 -1.340247 0.900592
H 0.138643 -1.394553 -0.947596
H -2.668107 -0.679441 1.043929
H -3.109350 0.778916 0.130443
H -2.806754 -0.748576 -0.724993
H 4.044891 1.317828 -1.408926
$end
$scan
stre 1 3 4.700000 4.701000 0.100000
$end
