
$comment
	potential surface scanner
$end

$rem
   JOBTYPE  PES_SCAN
   UNRESTRICTED TRUE
   SYM_IGNORE  TRUE
   GEOM_OPT_MAX_CYCLES 400
   SCF_MAX_CYCLES 400
   METHOD   B3LYP
   BASIS   6-31G**
   PDB_PRINT 2
   SCF_CONVERGENCE 6
   THRESH 14
   SCF_PRINT 1
$end
$molecule
0 1
S 2.663778 0.359764 -0.013124
C -0.701738 0.453376 -0.002612
C 0.277252 -0.671973 -0.010001
C -2.146218 -0.103730 0.022711
H -0.535817 1.087430 0.872580
H -0.569987 1.077665 -0.891347
H 0.422431 -1.235209 0.906733
H 0.402782 -1.251298 -0.919642
H -2.322833 -0.715707 0.912677
H -2.862454 0.723609 0.034222
H -2.354219 -0.718336 -0.858752
H 2.439624 0.898208 -1.230443
$end
$scan
stre 1 3 2.700000 2.701000 0.100000
$end
