
$comment
	potential surface scanner
$end

$rem
   JOBTYPE  PES_SCAN
   UNRESTRICTED TRUE
   SYM_IGNORE  TRUE
   GEOM_OPT_MAX_CYCLES 400
   SCF_MAX_CYCLES 400
   METHOD   B3LYP
   BASIS   6-31G**
   PDB_PRINT 2
   SCF_CONVERGENCE 6
   THRESH 14
   SCF_PRINT 1
$end
$molecule
0 1
S 2.223876 0.137586 0.011658
C -0.632731 0.509519 -0.011969
C 0.456792 -0.559495 -0.026942
C -2.036342 -0.109436 0.010428
H -0.489862 1.157070 0.859923
H -0.525480 1.150108 -0.896155
H 0.409205 -1.186494 0.868020
H 0.372353 -1.214129 -0.898197
H -2.181735 -0.730569 0.901218
H -2.808133 0.666563 0.016292
H -2.207281 -0.742718 -0.867231
H 2.131939 0.825796 -1.144044
$end
$scan
stre 1 3 2.000000 2.001000 0.100000
$end
