
$comment
	potential surface scanner
$end

$rem
   JOBTYPE  PES_SCAN
   UNRESTRICTED TRUE
   SYM_IGNORE  TRUE
   GEOM_OPT_MAX_CYCLES 400
   SCF_MAX_CYCLES 400
   METHOD   B3LYP
   BASIS   6-31G**
   PDB_PRINT 2
   SCF_CONVERGENCE 6
   THRESH 14
   SCF_PRINT 1
$end
$molecule
0 3
S 3.198194 0.897178 -0.384916
C -0.678598 0.516174 -0.028097
C 0.436788 -0.504367 -0.242402
C -2.063583 -0.134639 0.067251
H -0.479487 1.089486 0.885741
H -0.672045 1.242263 -0.850611
H 0.502000 -1.226692 0.579214
H 0.315136 -1.060594 -1.178625
H -2.114517 -0.841302 0.903160
H -2.843532 0.618492 0.219455
H -2.306749 -0.686215 -0.847779
H 1.419000 -0.005985 -0.299385
$end
$scan
stre 1 3 3.000000 3.001000 0.100000
$end
