
$comment
	potential surface scanner
$end

$rem
   JOBTYPE  PES_SCAN
   UNRESTRICTED TRUE
   SYM_IGNORE  TRUE
   GEOM_OPT_MAX_CYCLES 400
   SCF_MAX_CYCLES 400
   METHOD   B3LYP
   BASIS   6-31G**
   PDB_PRINT 2
   SCF_CONVERGENCE 6
   THRESH 14
   SCF_PRINT 1
$end
$molecule
0 1
S 3.086628 0.517496 -0.032772
C -0.783473 0.405980 -0.007408
C 0.144548 -0.741055 -0.018101
C -2.253040 -0.110860 0.049525
H -0.596314 1.038997 0.864406
H -0.656182 1.014399 -0.907147
H 0.393007 -1.256870 0.902830
H 0.373823 -1.264703 -0.939584
H -2.431955 -0.703109 0.951175
H -2.931929 0.747106 0.062472
H -2.494366 -0.726171 -0.821625
H 2.861853 0.982588 -1.280770
$end
$scan
stre 1 3 3.300000 3.301000 0.100000
$end
