
$comment
	potential surface scanner
$end

$rem
   JOBTYPE  PES_SCAN
   UNRESTRICTED TRUE
   SYM_IGNORE  TRUE
   GEOM_OPT_MAX_CYCLES 400
   SCF_MAX_CYCLES 400
   METHOD   B3LYP
   BASIS   6-31G**
   PDB_PRINT 2
   SCF_CONVERGENCE 6
   THRESH 14
   SCF_PRINT 1
$end
$molecule
0 1
S 2.535453 0.291099 -0.007594
C -0.676903 0.467463 -0.008126
C 0.326580 -0.647428 -0.014379
C -2.111731 -0.102085 0.018842
H -0.514097 1.107122 0.864049
H -0.549787 1.093604 -0.897044
H 0.419162 -1.229957 0.898676
H 0.401062 -1.249415 -0.916155
H -2.282578 -0.711165 0.912349
H -2.841260 0.713725 0.023766
H -2.311672 -0.726408 -0.858099
H 2.318372 0.897244 -1.193283
$end
$scan
stre 1 3 2.500000 2.501000 0.100000
$end
