$comment
     A single point DFT calculation in with basis 
     Mo   
     lanl2dz 
     **** set projection
$end

$molecule
0  3
C        -1.1953317338    0.3601864683    0.8051401484
C         0.2299472922   -0.0566336127    0.6944972130
C        -2.0629775074   -0.0079950176   -0.4191207150
Cl        3.2933566627   -1.0970396659   -0.8032687989
Cl        1.2787804130    0.8481820136   -0.3747278147
H        -1.2525779020    1.4413771801    0.9811592180
H        -1.5999876838   -0.1280120244    1.7008811946
H         0.5861186738   -1.0654951231    0.8662465450
H        -2.0587699864   -1.0877555709   -0.5943968461
H        -3.0980434627    0.3090839298   -0.2580078413
H        -1.6926147658    0.4841014226   -1.3230023031

$end

$rem
     JOBTYPE  PES_SCAN
   UNRESTRICTED TRUE 
    SYM_IGNORE  TRUE
    GEOM_OPT_MAX_CYCLES 400 
 SCF_MAX_CYCLES 400
     METHOD   B3LYP
     BASIS   6-31G**
     PDB_PRINT 2
     SCF_CONVERGENCE 6
     THRESH 14
     SCF_PRINT 1
$end

$scan 
stre 2 5 1.2 2.2 0.1
$end
