
$comment
potential surface scanner
$end

$rem
JOBTYPE  PES_SCAN
UNRESTRICTED TRUE
SYM_IGNORE  TRUE
GEOM_OPT_MAX_CYCLES 400
SCF_MAX_CYCLES 400
METHOD   B3LYP
BASIS   6-31G**
PDB_PRINT 2
SCF_CONVERGENCE 6
THRESH 14
SCF_PRINT 1
$end
$molecule
0 1
F 1.709066 0.772207 0.736277
F -1.703976 0.601191 -0.448166
C -0.031248 -1.033665 -0.048483
C 1.026880 -0.237468 -0.721521
C -1.100196 -0.141965 0.567181
H -0.489080 -1.693816 -0.802022
H 0.415890 -1.673274 0.718233
H 1.939279 -0.736564 -1.029328
H 0.700555 0.581885 -1.353025
H -0.624191 0.545545 1.269447
H -1.872276 -0.735282 1.068605
$end
$scan
stre 1 4 2.000000 2.001000 0.100000
$end
