
$comment
	potential surface scanner
$end

$rem
   JOBTYPE  PES_SCAN
   UNRESTRICTED TRUE
   SYM_IGNORE  TRUE
   GEOM_OPT_MAX_CYCLES 400
   SCF_MAX_CYCLES 400
   METHOD   B3LYP
   BASIS   6-31G**
   PDB_PRINT 2
   SCF_CONVERGENCE 6
   THRESH 14
   SCF_PRINT 1
$end
$molecule
0 3
F 1.704652 0.779985 0.731479
F -1.704224 0.600757 -0.447047
C -0.031545 -1.034065 -0.047510
C 1.027280 -0.239401 -0.721799
C -1.099249 -0.141051 0.568365
H -0.491064 -1.693094 -0.801218
H 0.414723 -1.674441 0.719007
H 1.941689 -0.738460 -1.023922
H 0.700837 0.574711 -1.360118
H -0.621538 0.547376 1.268529
H -1.870862 -0.733518 1.071432
$end
$scan
stre 1 4 4.000000 4.001000 0.100000
$end
