
$comment
	potential surface scanner
$end

$rem
   JOBTYPE  PES_SCAN
   UNRESTRICTED TRUE
   SYM_IGNORE  TRUE
   GEOM_OPT_MAX_CYCLES 400
   SCF_MAX_CYCLES 400
   METHOD   B3LYP
   BASIS   6-31G**
   PDB_PRINT 2
   SCF_CONVERGENCE 6
   THRESH 14
   SCF_PRINT 1
$end
$molecule
0 1
F 1.679199 0.634854 0.437913
F -1.683675 0.643328 -0.419120
C -0.002225 -0.990040 -0.012095
C 1.114766 -0.134980 -0.586182
C -1.121007 -0.150382 0.582089
H -0.406635 -1.629446 -0.806125
H 0.402767 -1.648523 0.765777
H 1.906171 -0.752968 -1.024964
H 0.723938 0.547458 -1.347924
H -0.731347 0.510863 1.363130
H -1.911250 -0.781366 1.004701
$end
$scan
stre 1 4 1.500000 1.501000 0.100000
$end
