
$comment
	potential surface scanner
$end

$rem
   JOBTYPE  PES_SCAN
   UNRESTRICTED TRUE
   SYM_IGNORE  TRUE
   GEOM_OPT_MAX_CYCLES 400
   SCF_MAX_CYCLES 400
   METHOD   B3LYP
   BASIS   6-31G**
   PDB_PRINT 2
   SCF_CONVERGENCE 6
   THRESH 14
   SCF_PRINT 1
$end
$molecule
0 1
F 1.707236 0.711123 0.614366
F -1.699675 0.613561 -0.439740
C -0.020566 -1.016023 -0.033001
C 1.059703 -0.198165 -0.667778
C -1.110745 -0.145719 0.572661
H -0.456219 -1.669646 -0.802162
H 0.410798 -1.661131 0.739161
H 1.928141 -0.741885 -1.030069
H 0.711886 0.576436 -1.346007
H -0.670551 0.535364 1.305228
H -1.889305 -0.755120 1.044541
$end
$scan
stre 1 4 1.800000 1.801000 0.100000
$end
