
$comment
	potential surface scanner
$end

$rem
   JOBTYPE  PES_SCAN
   UNRESTRICTED TRUE
   SYM_IGNORE  TRUE
   GEOM_OPT_MAX_CYCLES 400
   SCF_MAX_CYCLES 400
   METHOD   B3LYP
   BASIS   6-31G**
   PDB_PRINT 2
   SCF_CONVERGENCE 6
   THRESH 14
   SCF_PRINT 1
$end
$molecule
0 1
F 1.667664 0.610424 0.381137
F -1.679380 0.653298 -0.411157
C 0.003700 -0.981269 -0.005364
C 1.134875 -0.112108 -0.559120
C -1.124313 -0.151973 0.585415
H -0.389277 -1.615073 -0.808697
H 0.399756 -1.645205 0.773724
H 1.898153 -0.757859 -1.022374
H 0.727843 0.535485 -1.350264
H -0.750448 0.502247 1.381285
H -1.917872 -0.789168 0.992616
$end
$scan
stre 1 4 1.400000 1.401000 0.100000
$end
