
$comment
	potential surface scanner
$end

$rem
   JOBTYPE  PES_SCAN
   UNRESTRICTED TRUE
   SYM_IGNORE  TRUE
   GEOM_OPT_MAX_CYCLES 400
   SCF_MAX_CYCLES 400
   METHOD   B3LYP
   BASIS   6-31G**
   PDB_PRINT 2
   SCF_CONVERGENCE 6
   THRESH 14
   SCF_PRINT 1
$end
$molecule
0 1
F 1.653000 0.625500 0.402200
F -1.644300 0.642100 -0.389000
C -0.000400 -0.990500 -0.008200
C 1.108500 -0.129500 -0.588600
C -1.116800 -0.147700 0.583700
H -0.406500 -1.626400 -0.802200
H 0.409700 -1.637700 0.774300
H 1.902400 -0.751100 -1.012100
H 0.736700 0.544900 -1.365600
H -0.753700 0.499900 1.387100
H -1.917900 -0.780700 0.975600
$end
$scan
stre 1 4 0.900000 0.901000 0.100000
$end
