
$comment
	potential surface scanner
$end

$rem
   JOBTYPE  PES_SCAN
   UNRESTRICTED TRUE
   SYM_IGNORE  TRUE
   GEOM_OPT_MAX_CYCLES 400
   SCF_MAX_CYCLES 400
   METHOD   B3LYP
   BASIS   6-31G**
   PDB_PRINT 2
   SCF_CONVERGENCE 6
   THRESH 14
   SCF_PRINT 1
$end
$molecule
0 1
F 1.699219 0.684854 0.554819
F -1.694676 0.622784 -0.433608
C -0.014724 -1.007651 -0.025990
C 1.077298 -0.177902 -0.640532
C -1.114404 -0.147359 0.575704
H -0.440057 -1.656909 -0.803169
H 0.407954 -1.656695 0.748429
H 1.921711 -0.744965 -1.028835
H 0.716209 0.568778 -1.345453
H -0.690875 0.527893 1.324221
H -1.896953 -0.764032 1.031614
$end
$scan
stre 1 4 1.700000 1.701000 0.100000
$end
