
$comment
	potential surface scanner
$end

$rem
   JOBTYPE  PES_SCAN
   UNRESTRICTED TRUE
   SYM_IGNORE  TRUE
   GEOM_OPT_MAX_CYCLES 400
   SCF_MAX_CYCLES 400
   METHOD   B3LYP
   BASIS   6-31G**
   PDB_PRINT 2
   SCF_CONVERGENCE 6
   THRESH 14
   SCF_PRINT 1
$end
$molecule
0 1
F 1.689751 0.658996 0.496387
F -1.689217 0.632589 -0.426980
C -0.008535 -0.999030 -0.019055
C 1.095548 -0.156792 -0.613303
C -1.117723 -0.148876 0.578761
H -0.423623 -1.643715 -0.804287
H 0.405508 -1.652387 0.757309
H 1.914167 -0.748453 -1.027344
H 0.719995 0.559247 -1.345901
H -0.710973 0.519880 1.343300
H -1.904197 -0.772662 1.018313
$end
$scan
stre 1 4 1.600000 1.601000 0.100000
$end
