$comment
     Length-scal DFT calculation for PE - thioketone
$end

$molecule
0  3
S -1.40262 -0.00018 0.00481
C 0.33130 -0.00000 -0.00504
C 1.07540 1.30370 -0.00052
C 1.07568 -1.30355 -0.00052
H 1.72060 1.38941 0.88759
H 1.73049 1.38873 -0.88126
H 0.40837 2.17031 -0.00461
H 0.40883 -2.17030 -0.00364
H 1.72159 -1.38867 0.88713
H 1.73010 -1.38888 -0.88173
$end

$rem
     JOBTYPE  PES_SCAN
     UNRESTRICTED TRUE 
     SYM_IGNORE  TRUE
     GEOM_OPT_MAX_CYCLES 400 
     SCF_MAX_CYCLES 400
     METHOD   B3LYP
     BASIS   6-31G**
     PDB_PRINT 2
     SCF_CONVERGENCE 6
     THRESH 14
     SCF_PRINT 1
$end

$scan 
stre 1 2 1.25 2.5 0.05
$end
