
$comment
	potential surface scanner
$end

$rem
   JOBTYPE  PES_SCAN
   UNRESTRICTED TRUE
   SYM_IGNORE  TRUE
   GEOM_OPT_MAX_CYCLES 400
   SCF_MAX_CYCLES 400
   METHOD   B3LYP
   BASIS   6-31G**
   PDB_PRINT 2
   SCF_CONVERGENCE 6
   THRESH 14
   SCF_PRINT 1
$end
$molecule
0 1
F -0.000921 1.379919 0.128902
C 0.000062 -0.032364 -0.376525
C -1.278287 -0.667861 0.121044
C 1.279316 -0.666066 0.121005
H -0.000025 0.065163 -1.467103
H -2.145916 -0.092396 -0.210752
H -1.373115 -1.689201 -0.264003
H -1.283243 -0.708820 1.214219
H 2.146129 -0.089390 -0.210821
H 1.375542 -1.687269 -0.264046
H 1.284360 -0.707015 1.214180
$end
$scan
stre 1 2 1.600000 1.601000 0.100000
$end
