
$comment
	potential surface scanner
$end

$rem
   JOBTYPE  PES_SCAN
   UNRESTRICTED TRUE
   SYM_IGNORE  TRUE
   GEOM_OPT_MAX_CYCLES 400
   SCF_MAX_CYCLES 400
   METHOD   B3LYP
   BASIS   6-31G**
   PDB_PRINT 2
   SCF_CONVERGENCE 6
   THRESH 14
   SCF_PRINT 1
$end
$molecule
0 1
F -0.000876 1.330279 0.106506
C 0.000030 0.010776 -0.361372
C -1.274350 -0.662245 0.122648
C 1.275368 -0.660457 0.122606
H -0.000028 0.064939 -1.459199
H -2.151929 -0.101263 -0.210273
H -1.347492 -1.682198 -0.268440
H -1.287867 -0.709196 1.216247
H 2.152149 -0.098241 -0.210336
H 1.349922 -1.680301 -0.268492
H 1.288975 -0.707393 1.216205
$end
$scan
stre 1 2 1.500000 1.501000 0.100000
$end
