
$comment
	potential surface scanner
$end

$rem
   JOBTYPE  PES_SCAN
   UNRESTRICTED TRUE
   SYM_IGNORE  TRUE
   GEOM_OPT_MAX_CYCLES 400
   SCF_MAX_CYCLES 400
   METHOD   B3LYP
   BASIS   6-31G**
   PDB_PRINT 2
   SCF_CONVERGENCE 6
   THRESH 14
   SCF_PRINT 1
$end
$molecule
0 1
F -0.000979 1.430930 0.151388
C 0.000094 -0.074188 -0.391400
C -1.282076 -0.673580 0.119503
C 1.283118 -0.671778 0.119468
H -0.000020 0.064223 -1.474606
H -2.139598 -0.084015 -0.211660
H -1.398023 -1.695907 -0.259643
H -1.278959 -0.708909 1.212247
H 2.139810 -0.081033 -0.211741
H 1.400445 -1.693946 -0.259670
H 1.280090 -0.707096 1.212213
$end
$scan
stre 1 2 1.700000 1.701000 0.100000
$end
