
$comment
	potential surface scanner
$end

$rem
   JOBTYPE  PES_SCAN
   UNRESTRICTED TRUE
   SYM_IGNORE  TRUE
   GEOM_OPT_MAX_CYCLES 400
   SCF_MAX_CYCLES 400
   METHOD   B3LYP
   BASIS   6-31G**
   PDB_PRINT 2
   SCF_CONVERGENCE 6
   THRESH 14
   SCF_PRINT 1
$end
$molecule
0 1
F -0.001100 1.300300 0.128600
C -0.000000 0.030300 -0.363500
C -1.258200 -0.666200 0.117400
C 1.259300 -0.664500 0.117400
H -0.000100 0.100000 -1.455700
H -2.143900 -0.120600 -0.223400
H -1.313800 -1.692600 -0.257100
H -1.297200 -0.687600 1.211500
H 2.144200 -0.117700 -0.223400
H 1.316300 -1.690800 -0.257200
H 1.298400 -0.685900 1.211500
$end
$scan
stre 1 2 0.900000 0.901000 0.100000
$end
