
$comment
	potential surface scanner
$end

$rem
   JOBTYPE  PES_SCAN
   UNRESTRICTED TRUE
   SYM_IGNORE  TRUE
   GEOM_OPT_MAX_CYCLES 400
   SCF_MAX_CYCLES 400
   METHOD   B3LYP
   BASIS   6-31G**
   PDB_PRINT 2
   SCF_CONVERGENCE 6
   THRESH 14
   SCF_PRINT 1
$end
$molecule
0 1
F -0.000831 1.281735 0.084832
C -0.000003 0.055189 -0.345963
C -1.270935 -0.656889 0.124364
C 1.271941 -0.655109 0.124319
H -0.000032 0.064212 -1.451260
H -2.158128 -0.110805 -0.210713
H -1.321648 -1.675062 -0.272687
H -1.293812 -0.709703 1.218383
H 2.158352 -0.107767 -0.210774
H 1.324085 -1.673208 -0.272738
H 1.294913 -0.707893 1.218337
$end
$scan
stre 1 2 1.400000 1.401000 0.100000
$end
