
$comment
	potential surface scanner
$end

$rem
   JOBTYPE  PES_SCAN
   UNRESTRICTED TRUE
   SYM_IGNORE  TRUE
   GEOM_OPT_MAX_CYCLES 400
   SCF_MAX_CYCLES 400
   METHOD   B3LYP
   BASIS   6-31G**
   PDB_PRINT 2
   SCF_CONVERGENCE 6
   THRESH 14
   SCF_PRINT 1
$end
$molecule
0 3
F -0.001088 1.650587 0.243738
C 0.000190 -0.226085 -0.447710
C -1.292184 -0.696565 0.112793
C 1.293242 -0.694722 0.112768
H -0.000020 0.039475 -1.501934
H -2.110194 -0.053358 -0.213497
H -1.491009 -1.717301 -0.247033
H -1.258608 -0.716814 1.203781
H 2.110340 -0.050419 -0.213644
H 1.493473 -1.715231 -0.246925
H 1.259757 -0.714868 1.203763
$end
$scan
stre 1 2 4.000000 4.001000 0.100000
$end
