
$comment
	potential surface scanner
$end

$rem
   JOBTYPE  PES_SCAN
   UNRESTRICTED TRUE
   SYM_IGNORE  TRUE
   GEOM_OPT_MAX_CYCLES 400
   SCF_MAX_CYCLES 400
   METHOD   B3LYP
   BASIS   6-31G**
   PDB_PRINT 2
   SCF_CONVERGENCE 6
   THRESH 14
   SCF_PRINT 1
$end
$molecule
0 1
F -0.001013 1.483347 0.174310
C 0.000121 -0.114516 -0.406063
C -1.285379 -0.679352 0.117876
C 1.286427 -0.677544 0.117843
H -0.000020 0.061931 -1.481674
H -2.132901 -0.076286 -0.212916
H -1.421869 -1.702375 -0.255311
H -1.274496 -0.709315 1.210193
H 2.133101 -0.073324 -0.213016
H 1.424297 -1.700393 -0.255305
H 1.275634 -0.707472 1.210162
$end
$scan
stre 1 2 1.800000 1.801000 0.100000
$end
