
$comment
	potential surface scanner
$end

$rem
   JOBTYPE  PES_SCAN
   UNRESTRICTED TRUE
   SYM_IGNORE  TRUE
   GEOM_OPT_MAX_CYCLES 400
   SCF_MAX_CYCLES 400
   METHOD   B3LYP
   BASIS   6-31G**
   PDB_PRINT 2
   SCF_CONVERGENCE 6
   THRESH 14
   SCF_PRINT 1
$end
$molecule
0 1
F 1.370371 0.587423 0.142380
C -0.628351 -0.621188 0.275003
C 0.794409 -0.501316 -0.273452
C -1.517924 0.556319 -0.132897
H -0.575037 -0.687663 1.369299
H -1.054193 -1.568790 -0.078004
H 1.383897 -1.381454 0.034068
H 0.762472 -0.510240 -1.377424
H -2.510668 0.483136 0.320971
H -1.069496 1.502562 0.183677
H -1.648580 0.596411 -1.220421
$end
$scan
stre 1 3 1.400000 1.401000 0.100000
$end
