
$comment
	potential surface scanner
$end

$rem
   JOBTYPE  PES_SCAN
   UNRESTRICTED TRUE
   SYM_IGNORE  TRUE
   GEOM_OPT_MAX_CYCLES 400
   SCF_MAX_CYCLES 400
   METHOD   B3LYP
   BASIS   6-31G**
   PDB_PRINT 2
   SCF_CONVERGENCE 6
   THRESH 14
   SCF_PRINT 1
$end
$molecule
0 1
F 1.351930 1.593293 0.287878
C -0.714631 -0.776263 0.237164
C 0.596044 -0.907964 -0.392083
C -1.420482 0.547532 -0.117383
H -0.634762 -0.917550 1.318506
H -1.313021 -1.629928 -0.147328
H 1.434043 -1.382883 0.107712
H 0.727859 -0.652287 -1.439231
H -2.371839 0.621596 0.415866
H -0.727777 1.347355 0.163885
H -1.620464 0.612299 -1.191784
$end
$scan
stre 1 3 2.800000 2.801000 0.100000
$end
