
$comment
	potential surface scanner
$end

$rem
   JOBTYPE  PES_SCAN
   UNRESTRICTED TRUE
   SYM_IGNORE  TRUE
   GEOM_OPT_MAX_CYCLES 400
   SCF_MAX_CYCLES 400
   METHOD   B3LYP
   BASIS   6-31G**
   PDB_PRINT 2
   SCF_CONVERGENCE 6
   THRESH 14
   SCF_PRINT 1
$end
$molecule
0 3
F 0.421125 1.170898 -1.444133
C -0.549339 -0.894171 0.253245
C 0.785868 -0.403252 -0.102860
C -1.797327 -0.075097 0.151229
H -0.609821 -1.865703 0.747193
H -2.689104 -0.708458 0.111384
H 1.297797 -0.853329 -0.952180
H 1.482559 -0.171636 0.718538
H -1.924928 0.594296 1.020658
H 0.662327 1.098669 -0.523372
H -1.772262 0.562984 -0.736507
$end
$scan
stre 1 3 2.000000 2.001000 0.100000
$end
