
$comment
	potential surface scanner
$end

$rem
   JOBTYPE  PES_SCAN
   UNRESTRICTED TRUE
   SYM_IGNORE  TRUE
   GEOM_OPT_MAX_CYCLES 400
   SCF_MAX_CYCLES 400
   METHOD   B3LYP
   BASIS   6-31G**
   PDB_PRINT 2
   SCF_CONVERGENCE 6
   THRESH 14
   SCF_PRINT 1
$end
$molecule
0 3
F 0.802220 0.802332 -0.813580
C -0.652683 -1.040409 -0.080888
C 0.696837 -0.521909 0.078206
C -1.819699 -0.341811 0.524754
H -0.831369 -1.781198 -0.856038
H -2.704748 -0.982650 0.574999
H 1.488323 -1.159896 -0.311383
H 0.927638 -0.147502 1.076698
H -1.592573 0.026298 1.532262
H 1.077376 3.060613 -2.404199
H -2.084428 0.541333 -0.077634
$end
$scan
stre 1 3 1.500000 1.501000 0.100000
$end
