
$comment
	potential surface scanner
$end

$rem
   JOBTYPE  PES_SCAN
   UNRESTRICTED TRUE
   SYM_IGNORE  TRUE
   GEOM_OPT_MAX_CYCLES 400
   SCF_MAX_CYCLES 400
   METHOD   B3LYP
   BASIS   6-31G**
   PDB_PRINT 2
   SCF_CONVERGENCE 6
   THRESH 14
   SCF_PRINT 1
$end
$molecule
0 1
F 1.441991 1.145760 0.336225
C -0.688993 -0.708039 0.252405
C 0.639526 -0.773620 -0.379338
C -1.480152 0.542331 -0.144315
H -0.573750 -0.778978 1.338146
H -1.221587 -1.627381 -0.059502
H 1.427428 -1.381503 0.051824
H 0.750266 -0.514545 -1.427507
H -2.441077 0.576764 0.375669
H -0.872945 1.408897 0.121638
H -1.673808 0.565515 -1.222044
$end
$scan
stre 1 3 2.300000 2.301000 0.100000
$end
