
$comment
	potential surface scanner
$end

$rem
   JOBTYPE  PES_SCAN
   UNRESTRICTED TRUE
   SYM_IGNORE  TRUE
   GEOM_OPT_MAX_CYCLES 400
   SCF_MAX_CYCLES 400
   METHOD   B3LYP
   BASIS   6-31G**
   PDB_PRINT 2
   SCF_CONVERGENCE 6
   THRESH 14
   SCF_PRINT 1
$end
$molecule
0 1
F 1.422580 0.744445 0.225004
C -0.649089 -0.644132 0.269154
C 0.735725 -0.597057 -0.312214
C -1.513215 0.550463 -0.140093
H -0.567773 -0.701851 1.360097
H -1.109482 -1.587251 -0.060245
H 1.402959 -1.387112 0.031619
H 0.767702 -0.485893 -1.396985
H -2.495550 0.508767 0.338931
H -1.018834 1.479160 0.152492
H -1.668123 0.575660 -1.224558
$end
$scan
stre 1 3 1.700000 1.701000 0.100000
$end
