
$comment
	potential surface scanner
$end

$rem
   JOBTYPE  PES_SCAN
   UNRESTRICTED TRUE
   SYM_IGNORE  TRUE
   GEOM_OPT_MAX_CYCLES 400
   SCF_MAX_CYCLES 400
   METHOD   B3LYP
   BASIS   6-31G**
   PDB_PRINT 2
   SCF_CONVERGENCE 6
   THRESH 14
   SCF_PRINT 1
$end
$molecule
0 1
F 0.343180 2.071414 0.609102
C -0.453566 -0.754996 0.270719
C 0.696104 -0.949525 -0.385787
C -1.684264 -0.118017 -0.304512
H -0.514066 -1.051940 1.318151
H -2.570825 -0.732752 -0.112774
H 1.558105 -1.407487 0.090721
H 0.800889 -0.680877 -1.434719
H -1.845505 0.858066 0.165444
H 0.567923 1.185711 0.410412
H -1.591078 0.035604 -1.383554
$end
$scan
stre 1 3 3.300000 3.301000 0.100000
$end
