
$comment
	potential surface scanner
$end

$rem
   JOBTYPE  PES_SCAN
   UNRESTRICTED TRUE
   SYM_IGNORE  TRUE
   GEOM_OPT_MAX_CYCLES 400
   SCF_MAX_CYCLES 400
   METHOD   B3LYP
   BASIS   6-31G**
   PDB_PRINT 2
   SCF_CONVERGENCE 6
   THRESH 14
   SCF_PRINT 1
$end
$molecule
0 3
F 0.756965 1.930564 -0.319673
C -0.372870 -0.511410 0.466663
C 0.685795 -0.966528 -0.428276
C -1.732564 -0.143928 -0.059524
H -0.287657 -0.725082 1.535646
H -2.254910 -1.027107 -0.461520
H 0.710581 -1.995889 -0.786952
H 1.432473 -0.283127 -0.820692
H -2.366988 0.288605 0.719835
H 0.382539 1.316627 0.282205
H -1.646467 0.572474 -0.884517
$end
$scan
stre 1 3 2.800000 2.801000 0.100000
$end
