
$comment
	potential surface scanner
$end

$rem
   JOBTYPE  PES_SCAN
   UNRESTRICTED TRUE
   SYM_IGNORE  TRUE
   GEOM_OPT_MAX_CYCLES 400
   SCF_MAX_CYCLES 400
   METHOD   B3LYP
   BASIS   6-31G**
   PDB_PRINT 2
   SCF_CONVERGENCE 6
   THRESH 14
   SCF_PRINT 1
$end
$molecule
0 1
F 1.378715 1.500015 0.307468
C -0.710825 -0.762319 0.239872
C 0.602525 -0.880879 -0.391724
C -1.434710 0.545524 -0.125297
H -0.620617 -0.887003 1.322661
H -1.294370 -1.633668 -0.125785
H 1.433625 -1.379831 0.095705
H 0.731784 -0.619165 -1.437547
H -2.385846 0.615747 0.408792
H -0.755738 1.357801 0.148930
H -1.637643 0.598978 -1.199874
$end
$scan
stre 1 3 2.700000 2.701000 0.100000
$end
