
$comment
	potential surface scanner
$end

$rem
   JOBTYPE  PES_SCAN
   UNRESTRICTED TRUE
   SYM_IGNORE  TRUE
   GEOM_OPT_MAX_CYCLES 400
   SCF_MAX_CYCLES 400
   METHOD   B3LYP
   BASIS   6-31G**
   PDB_PRINT 2
   SCF_CONVERGENCE 6
   THRESH 14
   SCF_PRINT 1
$end
$molecule
0 1
F 0.173182 2.204934 0.892251
C -0.396460 -0.728499 0.237360
C 0.684974 -1.091267 -0.461680
C -1.639386 -0.108570 -0.335561
H -0.399028 -0.889522 1.316290
H -2.527401 -0.696869 -0.077253
H 1.551732 -1.536803 0.017492
H 0.733180 -0.965640 -1.541014
H -1.778779 0.895459 0.079350
H 0.487503 1.400197 0.541019
H -1.582620 -0.028219 -1.425051
$end
$scan
stre 1 3 3.700000 3.701000 0.100000
$end
