
$comment
	potential surface scanner
$end

$rem
   JOBTYPE  PES_SCAN
   UNRESTRICTED TRUE
   SYM_IGNORE  TRUE
   GEOM_OPT_MAX_CYCLES 400
   SCF_MAX_CYCLES 400
   METHOD   B3LYP
   BASIS   6-31G**
   PDB_PRINT 2
   SCF_CONVERGENCE 6
   THRESH 14
   SCF_PRINT 1
$end
$molecule
0 1
F 1.430948 1.231702 0.333458
C -0.694880 -0.720880 0.249138
C 0.628624 -0.800932 -0.383950
C -1.470329 0.543090 -0.140507
H -0.584821 -0.805074 1.334284
H -1.238826 -1.630639 -0.075380
H 1.430287 -1.378404 0.063541
H 0.745219 -0.539561 -1.430930
H -2.427971 0.587880 0.384582
H -0.843234 1.395540 0.126178
H -1.668117 0.572478 -1.217213
$end
$scan
stre 1 3 2.400000 2.401000 0.100000
$end
