
$comment
	potential surface scanner
$end

$rem
   JOBTYPE  PES_SCAN
   UNRESTRICTED TRUE
   SYM_IGNORE  TRUE
   GEOM_OPT_MAX_CYCLES 400
   SCF_MAX_CYCLES 400
   METHOD   B3LYP
   BASIS   6-31G**
   PDB_PRINT 2
   SCF_CONVERGENCE 6
   THRESH 14
   SCF_PRINT 1
$end
$molecule
0 3
F 0.631116 1.178634 -0.712014
C -0.572022 -1.035149 0.243323
C 0.781259 -0.616253 -0.107168
C -1.762484 -0.127806 0.149599
H -0.734905 -2.039324 0.641629
H -2.689522 -0.650204 0.404152
H 1.238802 -0.979216 -1.027340
H 1.495708 -0.380161 0.681824
H -1.672196 0.738434 0.824690
H 0.465551 2.074680 -0.994880
H -1.874412 0.291566 -0.860620
$end
$scan
stre 1 3 1.800000 1.801000 0.100000
$end
