
$comment
	potential surface scanner
$end

$rem
   JOBTYPE  PES_SCAN
   UNRESTRICTED TRUE
   SYM_IGNORE  TRUE
   GEOM_OPT_MAX_CYCLES 400
   SCF_MAX_CYCLES 400
   METHOD   B3LYP
   BASIS   6-31G**
   PDB_PRINT 2
   SCF_CONVERGENCE 6
   THRESH 14
   SCF_PRINT 1
$end
$molecule
0 1
F 1.416551 1.319716 0.327605
C -0.700617 -0.734427 0.246021
C 0.618776 -0.827857 -0.387580
C -1.459384 0.543626 -0.136319
H -0.596143 -0.831621 1.330554
H -1.257133 -1.633352 -0.090380
H 1.431590 -1.378246 0.073997
H 0.740656 -0.562882 -1.433109
H -2.414345 0.598369 0.392613
H -0.813205 1.381870 0.132022
H -1.659845 0.580004 -1.212224
$end
$scan
stre 1 3 2.500000 2.501000 0.100000
$end
