
$comment
	potential surface scanner
$end

$rem
   JOBTYPE  PES_SCAN
   UNRESTRICTED TRUE
   SYM_IGNORE  TRUE
   GEOM_OPT_MAX_CYCLES 400
   SCF_MAX_CYCLES 400
   METHOD   B3LYP
   BASIS   6-31G**
   PDB_PRINT 2
   SCF_CONVERGENCE 6
   THRESH 14
   SCF_PRINT 1
$end
$molecule
0 1
F 1.439831 0.862992 0.276939
C -0.663815 -0.663990 0.264320
C 0.699066 -0.657757 -0.338358
C -1.506005 0.546172 -0.144358
H -0.564654 -0.718288 1.353209
H -1.147364 -1.603162 -0.050811
H 1.414457 -1.386421 0.032578
H 0.765288 -0.478692 -1.408914
H -2.480545 0.532852 0.351350
H -0.972607 1.456571 0.133631
H -1.676754 0.564924 -1.226381
$end
$scan
stre 1 3 1.900000 1.901000 0.100000
$end
