
$comment
	potential surface scanner
$end

$rem
   JOBTYPE  PES_SCAN
   UNRESTRICTED TRUE
   SYM_IGNORE  TRUE
   GEOM_OPT_MAX_CYCLES 400
   SCF_MAX_CYCLES 400
   METHOD   B3LYP
   BASIS   6-31G**
   PDB_PRINT 2
   SCF_CONVERGENCE 6
   THRESH 14
   SCF_PRINT 1
$end
$molecule
0 3
F 0.663038 1.599098 -0.701945
C -0.389842 -0.516640 0.499455
C 0.716054 -0.784123 -0.423650
C -1.743466 -0.099088 -0.003202
H -0.365330 -0.991152 1.485879
H -2.286505 -0.963337 -0.421845
H 0.731091 -1.753932 -0.931890
H 1.672096 -0.281847 -0.370169
H -2.368155 0.309771 0.798095
H 0.329941 1.297682 0.117604
H -1.652026 0.638766 -0.805138
$end
$scan
stre 1 3 2.300000 2.301000 0.100000
$end
