
$comment
	potential surface scanner
$end

$rem
   JOBTYPE  PES_SCAN
   UNRESTRICTED TRUE
   SYM_IGNORE  TRUE
   GEOM_OPT_MAX_CYCLES 400
   SCF_MAX_CYCLES 400
   METHOD   B3LYP
   BASIS   6-31G**
   PDB_PRINT 2
   SCF_CONVERGENCE 6
   THRESH 14
   SCF_PRINT 1
$end
$molecule
0 3
F 0.776629 1.861953 -0.350890
C -0.378731 -0.501438 0.469853
C 0.686865 -0.935546 -0.427977
C -1.740268 -0.142765 -0.056435
H -0.294031 -0.728604 1.536202
H -2.255551 -1.028709 -0.461590
H 0.718289 -1.964574 -0.788312
H 1.438323 -0.251296 -0.805474
H -2.379400 0.282297 0.723306
H 0.392022 1.287529 0.283645
H -1.657250 0.576351 -0.879133
$end
$scan
stre 1 3 2.700000 2.701000 0.100000
$end
