
$comment
	potential surface scanner
$end

$rem
   JOBTYPE  PES_SCAN
   UNRESTRICTED TRUE
   SYM_IGNORE  TRUE
   GEOM_OPT_MAX_CYCLES 400
   SCF_MAX_CYCLES 400
   METHOD   B3LYP
   BASIS   6-31G**
   PDB_PRINT 2
   SCF_CONVERGENCE 6
   THRESH 14
   SCF_PRINT 1
$end
$molecule
0 1
F 1.224484 1.857272 0.280608
C -0.713237 -0.806519 0.233348
C 0.579255 -0.991574 -0.403316
C -1.373043 0.555324 -0.100154
H -0.649428 -0.976930 1.310890
H -1.362442 -1.608123 -0.183131
H 1.431194 -1.420789 0.114840
H 0.705467 -0.763501 -1.458127
H -2.328695 0.637160 0.424580
H -0.647296 1.327250 0.198812
H -1.559361 0.645630 -1.175148
$end
$scan
stre 1 3 3.100000 3.101000 0.100000
$end
