
$comment
	potential surface scanner
$end

$rem
   JOBTYPE  PES_SCAN
   UNRESTRICTED TRUE
   SYM_IGNORE  TRUE
   GEOM_OPT_MAX_CYCLES 400
   SCF_MAX_CYCLES 400
   METHOD   B3LYP
   BASIS   6-31G**
   PDB_PRINT 2
   SCF_CONVERGENCE 6
   THRESH 14
   SCF_PRINT 1
$end
$molecule
0 3
F 0.691766 1.995852 -0.299382
C -0.362171 -0.521576 0.465218
C 0.687819 -1.001443 -0.426689
C -1.717190 -0.138119 -0.062701
H -0.277336 -0.724071 1.536273
H -2.245961 -1.013311 -0.473229
H 0.698468 -2.032118 -0.781658
H 1.435400 -0.326928 -0.835303
H -2.349513 0.294856 0.717980
H 0.367339 1.337515 0.283933
H -1.621724 0.584542 -0.881246
$end
$scan
stre 1 3 2.900000 2.901000 0.100000
$end
