
$comment
	potential surface scanner
$end

$rem
   JOBTYPE  PES_SCAN
   UNRESTRICTED TRUE
   SYM_IGNORE  TRUE
   GEOM_OPT_MAX_CYCLES 400
   SCF_MAX_CYCLES 400
   METHOD   B3LYP
   BASIS   6-31G**
   PDB_PRINT 2
   SCF_CONVERGENCE 6
   THRESH 14
   SCF_PRINT 1
$end
$molecule
0 1
F 1.395821 1.412167 0.314050
C -0.706616 -0.749685 0.242371
C 0.610383 -0.854795 -0.388782
C -1.446395 0.544805 -0.130251
H -0.611712 -0.864116 1.325975
H -1.276744 -1.633925 -0.112015
H 1.433899 -1.375479 0.088298
H 0.736975 -0.591137 -1.434217
H -2.397636 0.610043 0.404146
H -0.780049 1.368051 0.138588
H -1.651026 0.589271 -1.204963
$end
$scan
stre 1 3 2.600000 2.601000 0.100000
$end
