
$comment
	potential surface scanner
$end

$rem
   JOBTYPE  PES_SCAN
   UNRESTRICTED TRUE
   SYM_IGNORE  TRUE
   GEOM_OPT_MAX_CYCLES 400
   SCF_MAX_CYCLES 400
   METHOD   B3LYP
   BASIS   6-31G**
   PDB_PRINT 2
   SCF_CONVERGENCE 6
   THRESH 14
   SCF_PRINT 1
$end
$molecule
0 1
F 1.448591 0.994117 0.319175
C -0.677088 -0.684991 0.258439
C 0.666804 -0.716209 -0.361703
C -1.495827 0.543037 -0.146772
H -0.565135 -0.741914 1.345610
H -1.184039 -1.617387 -0.048671
H 1.421918 -1.385155 0.037633
H 0.759600 -0.485170 -1.418671
H -2.462149 0.556856 0.364411
H -0.923906 1.432791 0.119911
H -1.681868 0.559226 -1.226158
$end
$scan
stre 1 3 2.100000 2.101000 0.100000
$end
