
$comment
	potential surface scanner
$end

$rem
   JOBTYPE  PES_SCAN
   UNRESTRICTED TRUE
   SYM_IGNORE  TRUE
   GEOM_OPT_MAX_CYCLES 400
   SCF_MAX_CYCLES 400
   METHOD   B3LYP
   BASIS   6-31G**
   PDB_PRINT 2
   SCF_CONVERGENCE 6
   THRESH 14
   SCF_PRINT 1
$end
$molecule
0 1
F 1.446194 1.072106 0.319833
C -0.683919 -0.697541 0.254967
C 0.652473 -0.745667 -0.369883
C -1.487686 0.543334 -0.144005
H -0.572333 -0.764543 1.341458
H -1.203651 -1.622210 -0.058371
H 1.427180 -1.377923 0.050212
H 0.754994 -0.505297 -1.423507
H -2.452267 0.566313 0.369995
H -0.898179 1.420754 0.125310
H -1.675906 0.565875 -1.222807
$end
$scan
stre 1 3 2.200000 2.201000 0.100000
$end
