
$comment
	potential surface scanner
$end

$rem
   JOBTYPE  PES_SCAN
   UNRESTRICTED TRUE
   SYM_IGNORE  TRUE
   GEOM_OPT_MAX_CYCLES 400
   SCF_MAX_CYCLES 400
   METHOD   B3LYP
   BASIS   6-31G**
   PDB_PRINT 2
   SCF_CONVERGENCE 6
   THRESH 14
   SCF_PRINT 1
$end
$molecule
0 3
F 0.066140 2.327429 1.020491
C -0.357145 -0.739923 0.208570
C 0.660398 -1.203975 -0.524191
C -1.599396 -0.088607 -0.331907
H -0.310186 -0.845625 1.293686
H -2.495742 -0.644264 -0.031458
H 1.527371 -1.671882 -0.067246
H 0.656188 -1.137510 -1.609778
H -1.700117 0.925696 0.069458
H 0.440340 1.565035 0.639960
H -1.580952 -0.031176 -1.424386
$end
$scan
stre 1 3 4.000000 4.001000 0.100000
$end
