
$comment
	potential surface scanner
$end

$rem
   JOBTYPE  PES_SCAN
   UNRESTRICTED TRUE
   SYM_IGNORE  TRUE
   GEOM_OPT_MAX_CYCLES 400
   SCF_MAX_CYCLES 400
   METHOD   B3LYP
   BASIS   6-31G**
   PDB_PRINT 2
   SCF_CONVERGENCE 6
   THRESH 14
   SCF_PRINT 1
$end
$molecule
0 3
F 0.174531 2.319316 0.186178
C -0.264177 -0.509939 0.367122
C 0.698948 -1.175101 -0.502324
C -1.621559 -0.092496 -0.129014
H -0.152815 -0.629251 1.449504
H -2.270467 -0.971801 -0.272883
H 0.613587 -2.237645 -0.731673
H 1.525161 -0.642011 -0.967687
H -2.118815 0.575063 0.579717
H 0.276034 1.403152 0.359801
H -1.553529 0.415910 -1.095541
$end
$scan
stre 1 3 3.500000 3.501000 0.100000
$end
