
$comment
	potential surface scanner
$end

$rem
   JOBTYPE  PES_SCAN
   UNRESTRICTED TRUE
   SYM_IGNORE  TRUE
   GEOM_OPT_MAX_CYCLES 400
   SCF_MAX_CYCLES 400
   METHOD   B3LYP
   BASIS   6-31G**
   PDB_PRINT 2
   SCF_CONVERGENCE 6
   THRESH 14
   SCF_PRINT 1
$end
$molecule
0 3
F 0.050253 2.353286 0.570440
C -0.231726 -0.482003 0.291559
C 0.703108 -1.219121 -0.548350
C -1.606164 -0.095381 -0.182802
H -0.087015 -0.513641 1.376506
H -2.308267 -0.938260 -0.074920
H 0.610460 -2.296817 -0.686762
H 1.521327 -0.731936 -1.074414
H -1.998623 0.742302 0.400144
H 0.255070 1.452006 0.412241
H -1.601524 0.184763 -1.240442
$end
$scan
stre 1 3 3.700000 3.701000 0.100000
$end
