
$comment
	potential surface scanner
$end

$rem
   JOBTYPE  PES_SCAN
   UNRESTRICTED TRUE
   SYM_IGNORE  TRUE
   GEOM_OPT_MAX_CYCLES 400
   SCF_MAX_CYCLES 400
   METHOD   B3LYP
   BASIS   6-31G**
   PDB_PRINT 2
   SCF_CONVERGENCE 6
   THRESH 14
   SCF_PRINT 1
$end
$molecule
0 3
F 0.415438 1.206122 -1.519660
C -0.544611 -0.883245 0.303142
C 0.789497 -0.420939 -0.086917
C -1.793209 -0.068919 0.168287
H -0.609789 -1.847856 0.810409
H -2.663241 -0.703540 -0.035009
H 1.276511 -0.878871 -0.947579
H 1.503202 -0.144955 0.703478
H -2.025595 0.488502 1.092371
H 0.649067 1.047520 -0.607817
H -1.690374 0.661382 -0.637509
$end
$scan
stre 1 3 2.100000 2.101000 0.100000
$end
