
$comment
	potential surface scanner
$end

$rem
   JOBTYPE  PES_SCAN
   UNRESTRICTED TRUE
   SYM_IGNORE  TRUE
   GEOM_OPT_MAX_CYCLES 400
   SCF_MAX_CYCLES 400
   METHOD   B3LYP
   BASIS   6-31G**
   PDB_PRINT 2
   SCF_CONVERGENCE 6
   THRESH 14
   SCF_PRINT 1
$end
$molecule
0 3
F 0.272288 2.282737 0.036377
C -0.281375 -0.522064 0.395685
C 0.700229 -1.152469 -0.479595
C -1.633019 -0.099497 -0.112002
H -0.182790 -0.668998 1.475614
H -2.258957 -0.979085 -0.334162
H 0.621796 -2.205151 -0.752058
H 1.509843 -0.587775 -0.936776
H -2.167351 0.508064 0.623951
H 0.272599 1.404567 0.365648
H -1.546364 0.474869 -1.039483
$end
$scan
stre 1 3 3.400000 3.401000 0.100000
$end
