
$comment
	potential surface scanner
$end

$rem
   JOBTYPE  PES_SCAN
   UNRESTRICTED TRUE
   SYM_IGNORE  TRUE
   GEOM_OPT_MAX_CYCLES 400
   SCF_MAX_CYCLES 400
   METHOD   B3LYP
   BASIS   6-31G**
   PDB_PRINT 2
   SCF_CONVERGENCE 6
   THRESH 14
   SCF_PRINT 1
$end
$molecule
0 3
F 0.735454 1.731746 -0.486334
C -0.384418 -0.501323 0.479606
C 0.695076 -0.867408 -0.433676
C -1.744325 -0.123647 -0.037389
H -0.319263 -0.823202 1.523309
H -2.269276 -1.002962 -0.445652
H 0.727582 -1.883108 -0.834403
H 1.541202 -0.230777 -0.650268
H -2.377725 0.296235 0.750316
H 0.359916 1.258622 0.231119
H -1.657326 0.601023 -0.853434
$end
$scan
stre 1 3 2.500000 2.501000 0.100000
$end
