
$comment
	potential surface scanner
$end

$rem
   JOBTYPE  PES_SCAN
   UNRESTRICTED TRUE
   SYM_IGNORE  TRUE
   GEOM_OPT_MAX_CYCLES 400
   SCF_MAX_CYCLES 400
   METHOD   B3LYP
   BASIS   6-31G**
   PDB_PRINT 2
   SCF_CONVERGENCE 6
   THRESH 14
   SCF_PRINT 1
$end
$molecule
0 1
F 0.269593 2.132059 0.774656
C -0.424864 -0.731647 0.253033
C 0.689500 -1.019740 -0.429436
C -1.666550 -0.115778 -0.324896
H -0.451346 -0.942907 1.322773
H -2.550367 -0.721340 -0.094559
H 1.556964 -1.460415 0.053040
H 0.763823 -0.838786 -1.499371
H -1.823155 0.876981 0.110478
H 0.536874 1.284444 0.488383
H -1.593575 -0.007671 -1.410897
$end
$scan
stre 1 3 3.500000 3.501000 0.100000
$end
