
$comment
	potential surface scanner
$end

$rem
   JOBTYPE  PES_SCAN
   UNRESTRICTED TRUE
   SYM_IGNORE  TRUE
   GEOM_OPT_MAX_CYCLES 400
   SCF_MAX_CYCLES 400
   METHOD   B3LYP
   BASIS   6-31G**
   PDB_PRINT 2
   SCF_CONVERGENCE 6
   THRESH 14
   SCF_PRINT 1
$end
$molecule
0 1
F 1.406541 0.690324 0.198228
C -0.641955 -0.636012 0.270992
C 0.754753 -0.565801 -0.299087
C -1.515129 0.552479 -0.137776
H -0.569897 -0.696385 1.363021
H -1.091277 -1.580508 -0.066109
H 1.396798 -1.385546 0.032142
H 0.767149 -0.492531 -1.390445
H -2.500727 0.499560 0.333622
H -1.036595 1.487829 0.161867
H -1.662759 0.581790 -1.223254
$end
$scan
stre 1 3 1.600000 1.601000 0.100000
$end
