
$comment
	potential surface scanner
$end

$rem
   JOBTYPE  PES_SCAN
   UNRESTRICTED TRUE
   SYM_IGNORE  TRUE
   GEOM_OPT_MAX_CYCLES 400
   SCF_MAX_CYCLES 400
   METHOD   B3LYP
   BASIS   6-31G**
   PDB_PRINT 2
   SCF_CONVERGENCE 6
   THRESH 14
   SCF_PRINT 1
$end
$molecule
0 1
F 0.131761 2.255174 0.921977
C -0.384330 -0.734055 0.231437
C 0.681776 -1.126703 -0.474587
C -1.625531 -0.105509 -0.336839
H -0.377725 -0.879839 1.312605
H -2.515555 -0.692077 -0.080771
H 1.546770 -1.579721 0.000747
H 0.719806 -1.016961 -1.556048
H -1.762796 0.896577 0.083225
H 0.462879 1.459253 0.567577
H -1.570159 -0.020939 -1.426120
$end
$scan
stre 1 3 3.800000 3.801000 0.100000
$end
