
$comment
	potential surface scanner
$end

$rem
   JOBTYPE  PES_SCAN
   UNRESTRICTED TRUE
   SYM_IGNORE  TRUE
   GEOM_OPT_MAX_CYCLES 400
   SCF_MAX_CYCLES 400
   METHOD   B3LYP
   BASIS   6-31G**
   PDB_PRINT 2
   SCF_CONVERGENCE 6
   THRESH 14
   SCF_PRINT 1
$end
$molecule
0 1
F 1.388547 0.638500 0.170160
C -0.635024 -0.628522 0.272813
C 0.774252 -0.533892 -0.286063
C -1.516556 0.554438 -0.135313
H -0.572442 -0.691895 1.365966
H -1.072874 -1.574432 -0.072325
H 1.390399 -1.383334 0.033261
H 0.765390 -0.501198 -1.383733
H -2.505608 0.491088 0.327731
H -1.053084 1.495438 0.172512
H -1.656099 0.589009 -1.221808
$end
$scan
stre 1 3 1.500000 1.501000 0.100000
$end
