
$comment
	potential surface scanner
$end

$rem
   JOBTYPE  PES_SCAN
   UNRESTRICTED TRUE
   SYM_IGNORE  TRUE
   GEOM_OPT_MAX_CYCLES 400
   SCF_MAX_CYCLES 400
   METHOD   B3LYP
   BASIS   6-31G**
   PDB_PRINT 2
   SCF_CONVERGENCE 6
   THRESH 14
   SCF_PRINT 1
$end
$molecule
0 1
F 1.442746 0.928134 0.298887
C -0.670940 -0.675003 0.261314
C 0.682132 -0.687382 -0.350400
C -1.500767 0.544436 -0.145750
H -0.564902 -0.730269 1.349282
H -1.166298 -1.610950 -0.049416
H 1.419212 -1.384694 0.035385
H 0.762797 -0.480473 -1.413954
H -2.470844 0.546027 0.358558
H -0.946412 1.443933 0.125664
H -1.679825 0.561442 -1.226365
$end
$scan
stre 1 3 2.000000 2.001000 0.100000
$end
