
$comment
	potential surface scanner
$end

$rem
   JOBTYPE  PES_SCAN
   UNRESTRICTED TRUE
   SYM_IGNORE  TRUE
   GEOM_OPT_MAX_CYCLES 400
   SCF_MAX_CYCLES 400
   METHOD   B3LYP
   BASIS   6-31G**
   PDB_PRINT 2
   SCF_CONVERGENCE 6
   THRESH 14
   SCF_PRINT 1
$end
$molecule
0 1
F 1.271492 1.768375 0.290586
C -0.714293 -0.795553 0.234418
C 0.584480 -0.963114 -0.400052
C -1.390345 0.551827 -0.108600
H -0.642516 -0.953996 1.313697
H -1.345344 -1.619350 -0.165827
H 1.429331 -1.415050 0.110135
H 0.715877 -0.715266 -1.449555
H -2.341798 0.634394 0.423357
H -0.673443 1.333560 0.177947
H -1.586541 0.629372 -1.182904
$end
$scan
stre 1 3 3.000000 3.001000 0.100000
$end
