
$comment
	potential surface scanner
$end

$rem
   JOBTYPE  PES_SCAN
   UNRESTRICTED TRUE
   SYM_IGNORE  TRUE
   GEOM_OPT_MAX_CYCLES 400
   SCF_MAX_CYCLES 400
   METHOD   B3LYP
   BASIS   6-31G**
   PDB_PRINT 2
   SCF_CONVERGENCE 6
   THRESH 14
   SCF_PRINT 1
$end
$molecule
0 1
F 0.313896 2.108160 0.672386
C -0.438490 -0.740854 0.265037
C 0.692279 -0.987279 -0.407002
C -1.675462 -0.115166 -0.311153
H -0.481121 -0.995535 1.324720
H -2.555948 -0.739782 -0.123263
H 1.555381 -1.438279 0.073664
H 0.783033 -0.764620 -1.467787
H -1.851691 0.857993 0.159264
H 0.547597 1.231643 0.447366
H -1.582577 0.038920 -1.390028
$end
$scan
stre 1 3 3.400000 3.401000 0.100000
$end
