
$comment
	potential surface scanner
$end

$rem
   JOBTYPE  PES_SCAN
   UNRESTRICTED TRUE
   SYM_IGNORE  TRUE
   GEOM_OPT_MAX_CYCLES 400
   SCF_MAX_CYCLES 400
   METHOD   B3LYP
   BASIS   6-31G**
   PDB_PRINT 2
   SCF_CONVERGENCE 6
   THRESH 14
   SCF_PRINT 1
$end
$molecule
0 3
F 0.692416 1.668277 -0.591091
C -0.386024 -0.506584 0.488412
C 0.703463 -0.826697 -0.433030
C -1.743280 -0.110130 -0.021738
H -0.340905 -0.905344 1.506783
H -2.277406 -0.983410 -0.431973
H 0.725562 -1.824037 -0.881529
H 1.615444 -0.252468 -0.512858
H -2.371524 0.306793 0.772068
H 0.342558 1.270124 0.180925
H -1.653408 0.618674 -0.832775
$end
$scan
stre 1 3 2.400000 2.401000 0.100000
$end
