
$comment
	potential surface scanner
$end

$rem
   JOBTYPE  PES_SCAN
   UNRESTRICTED TRUE
   SYM_IGNORE  TRUE
   GEOM_OPT_MAX_CYCLES 400
   SCF_MAX_CYCLES 400
   METHOD   B3LYP
   BASIS   6-31G**
   PDB_PRINT 2
   SCF_CONVERGENCE 6
   THRESH 14
   SCF_PRINT 1
$end
$molecule
0 3
F 0.623826 1.129793 -0.687776
C -0.568315 -1.013584 0.234577
C 0.778960 -0.571674 -0.121257
C -1.773103 -0.125530 0.149663
H -0.711448 -2.024060 0.623586
H -2.687634 -0.660575 0.422051
H 1.241629 -0.977073 -1.022113
H 1.496458 -0.384751 0.679392
H -1.686631 0.748249 0.815028
H 0.500717 2.051370 -0.987389
H -1.907563 0.283037 -0.862566
$end
$scan
stre 1 3 1.700000 1.701000 0.100000
$end
