
$comment
	potential surface scanner
$end

$rem
   JOBTYPE  PES_SCAN
   UNRESTRICTED TRUE
   SYM_IGNORE  TRUE
   GEOM_OPT_MAX_CYCLES 400
   SCF_MAX_CYCLES 400
   METHOD   B3LYP
   BASIS   6-31G**
   PDB_PRINT 2
   SCF_CONVERGENCE 6
   THRESH 14
   SCF_PRINT 1
$end
$molecule
0 3
F 0.643778 1.519369 -0.817219
C -0.396850 -0.535515 0.512234
C 0.732846 -0.741101 -0.402074
C -1.744828 -0.089853 0.018668
H -0.394950 -1.085184 1.459432
H -2.298986 -0.938881 -0.416990
H 0.752769 -1.672626 -0.978994
H 1.708769 -0.304582 -0.231341
H -2.366172 0.306070 0.829673
H 0.320409 1.333818 0.037467
H -1.649888 0.663685 -0.767661
$end
$scan
stre 1 3 2.200000 2.201000 0.100000
$end
