
$comment
	potential surface scanner
$end

$rem
   JOBTYPE  PES_SCAN
   UNRESTRICTED TRUE
   SYM_IGNORE  TRUE
   GEOM_OPT_MAX_CYCLES 400
   SCF_MAX_CYCLES 400
   METHOD   B3LYP
   BASIS   6-31G**
   PDB_PRINT 2
   SCF_CONVERGENCE 6
   THRESH 14
   SCF_PRINT 1
$end
$molecule
0 3
F 0.373938 2.236438 -0.116452
C -0.302941 -0.532790 0.425385
C 0.692897 -1.131452 -0.456424
C -1.651094 -0.107548 -0.089936
H -0.206690 -0.692295 1.503211
H -2.227276 -0.975669 -0.447843
H 0.633686 -2.180134 -0.748111
H 1.490809 -0.541844 -0.902735
H -2.242175 0.387120 0.686034
H 0.292744 1.415457 0.327965
H -1.547000 0.577914 -0.937896
$end
$scan
stre 1 3 3.300000 3.301000 0.100000
$end
