
$comment
	potential surface scanner
$end

$rem
   JOBTYPE  PES_SCAN
   UNRESTRICTED TRUE
   SYM_IGNORE  TRUE
   GEOM_OPT_MAX_CYCLES 400
   SCF_MAX_CYCLES 400
   METHOD   B3LYP
   BASIS   6-31G**
   PDB_PRINT 2
   SCF_CONVERGENCE 6
   THRESH 14
   SCF_PRINT 1
$end
$molecule
0 1
F 0.223292 2.180599 0.806247
C -0.412925 -0.737301 0.248141
C 0.688038 -1.055927 -0.442317
C -1.652374 -0.111427 -0.325065
H -0.432339 -0.936301 1.320482
H -2.539221 -0.713051 -0.095646
H 1.552479 -1.506102 0.036708
H 0.754495 -0.889527 -1.515168
H -1.803446 0.880494 0.113928
H 0.509615 1.344094 0.506825
H -1.580718 -0.000349 -1.410931
$end
$scan
stre 1 3 3.600000 3.601000 0.100000
$end
