
$comment
	potential surface scanner
$end

$rem
   JOBTYPE  PES_SCAN
   UNRESTRICTED TRUE
   SYM_IGNORE  TRUE
   GEOM_OPT_MAX_CYCLES 400
   SCF_MAX_CYCLES 400
   METHOD   B3LYP
   BASIS   6-31G**
   PDB_PRINT 2
   SCF_CONVERGENCE 6
   THRESH 14
   SCF_PRINT 1
$end
$molecule
0 1
F 1.434641 0.801509 0.251419
C -0.656350 -0.653098 0.267181
C 0.716987 -0.627632 -0.325234
C -1.510523 0.548351 -0.142307
H -0.566070 -0.708696 1.357067
H -1.127530 -1.594788 -0.055138
H 1.408831 -1.387704 0.031173
H 0.767226 -0.481422 -1.403110
H -2.489335 0.519692 0.344551
H -0.998190 1.468927 0.143255
H -1.672788 0.570061 -1.225654
$end
$scan
stre 1 3 1.800000 1.801000 0.100000
$end
