
$comment
	potential surface scanner
$end

$rem
   JOBTYPE  PES_SCAN
   UNRESTRICTED TRUE
   SYM_IGNORE  TRUE
   GEOM_OPT_MAX_CYCLES 400
   SCF_MAX_CYCLES 400
   METHOD   B3LYP
   BASIS   6-31G**
   PDB_PRINT 2
   SCF_CONVERGENCE 6
   THRESH 14
   SCF_PRINT 1
$end
$molecule
0 3
F 0.102063 2.344719 0.362367
C -0.245510 -0.497509 0.331983
C 0.703674 -1.196401 -0.525629
C -1.610018 -0.091764 -0.155050
H -0.123235 -0.586633 1.416499
H -2.293516 -0.956520 -0.159191
H 0.606360 -2.264351 -0.723100
H 1.528719 -0.684676 -1.016307
H -2.048815 0.675950 0.487976
H 0.257969 1.420380 0.402395
H -1.570794 0.292002 -1.178743
$end
$scan
stre 1 3 3.600000 3.601000 0.100000
$end
