
$comment
	potential surface scanner
$end

$rem
   JOBTYPE  PES_SCAN
   UNRESTRICTED TRUE
   SYM_IGNORE  TRUE
   GEOM_OPT_MAX_CYCLES 400
   SCF_MAX_CYCLES 400
   METHOD   B3LYP
   BASIS   6-31G**
   PDB_PRINT 2
   SCF_CONVERGENCE 6
   THRESH 14
   SCF_PRINT 1
$end
$molecule
0 3
F 0.617742 2.059066 -0.275430
C -0.350353 -0.530310 0.462063
C 0.689879 -1.036394 -0.426855
C -1.700803 -0.131333 -0.066733
H -0.264541 -0.721539 1.535019
H -2.236449 -0.998952 -0.483960
H 0.684549 -2.069583 -0.774228
H 1.440956 -0.374381 -0.851137
H -2.330336 0.303144 0.715253
H 0.353076 1.359059 0.288881
H -1.596822 0.596421 -0.879677
$end
$scan
stre 1 3 3.000000 3.001000 0.100000
$end
