
$comment
	potential surface scanner
$end

$rem
   JOBTYPE  PES_SCAN
   UNRESTRICTED TRUE
   SYM_IGNORE  TRUE
   GEOM_OPT_MAX_CYCLES 400
   SCF_MAX_CYCLES 400
   METHOD   B3LYP
   BASIS   6-31G**
   PDB_PRINT 2
   SCF_CONVERGENCE 6
   THRESH 14
   SCF_PRINT 1
$end
$molecule
0 1
F 1.313639 1.687151 0.270756
C -0.717408 -0.790079 0.234403
C 0.590483 -0.935310 -0.392373
C -1.404276 0.549991 -0.109344
H -0.647789 -0.946958 1.314065
H -1.331519 -1.624209 -0.168660
H 1.433944 -1.389205 0.118009
H 0.723866 -0.687587 -1.441419
H -2.355116 0.628965 0.424231
H -0.696327 1.336906 0.176824
H -1.602597 0.625534 -1.183290
$end
$scan
stre 1 3 2.900000 2.901000 0.100000
$end
