
$comment
	potential surface scanner
$end

$rem
   JOBTYPE  PES_SCAN
   UNRESTRICTED TRUE
   SYM_IGNORE  TRUE
   GEOM_OPT_MAX_CYCLES 400
   SCF_MAX_CYCLES 400
   METHOD   B3LYP
   BASIS   6-31G**
   PDB_PRINT 2
   SCF_CONVERGENCE 6
   THRESH 14
   SCF_PRINT 1
$end
$molecule
0 3
F 0.454955 2.180422 -0.189956
C -0.320829 -0.534739 0.443525
C 0.692632 -1.101467 -0.440381
C -1.667600 -0.115567 -0.079274
H -0.228761 -0.706493 1.519504
H -2.223441 -0.979330 -0.477356
H 0.647485 -2.142813 -0.759226
H 1.473186 -0.484384 -0.880219
H -2.280176 0.342811 0.702370
H 0.318686 1.397121 0.306386
H -1.559238 0.599636 -0.902176
$end
$scan
stre 1 3 3.200000 3.201000 0.100000
$end
