
$comment
	potential surface scanner
$end

$rem
   JOBTYPE  PES_SCAN
   UNRESTRICTED TRUE
   SYM_IGNORE  TRUE
   GEOM_OPT_MAX_CYCLES 400
   SCF_MAX_CYCLES 400
   METHOD   B3LYP
   BASIS   6-31G**
   PDB_PRINT 2
   SCF_CONVERGENCE 6
   THRESH 14
   SCF_PRINT 1
$end
$molecule
0 3
F 0.630394 1.073137 -0.669020
C -0.567126 -0.995144 0.228703
C 0.775994 -0.533782 -0.133659
C -1.780634 -0.122073 0.149842
H -0.684010 -2.009539 0.612769
H -2.686564 -0.669175 0.425677
H 1.241050 -0.986946 -1.011886
H 1.494891 -0.399002 0.677962
H -1.700459 0.752032 0.814942
H 0.506169 2.059596 -0.990981
H -1.922809 0.286098 -0.861153
$end
$scan
stre 1 3 1.600000 1.601000 0.100000
$end
