
$comment
	potential surface scanner
$end

$rem
   JOBTYPE  PES_SCAN
   UNRESTRICTED TRUE
   SYM_IGNORE  TRUE
   GEOM_OPT_MAX_CYCLES 400
   SCF_MAX_CYCLES 400
   METHOD   B3LYP
   BASIS   6-31G**
   PDB_PRINT 2
   SCF_CONVERGENCE 6
   THRESH 14
   SCF_PRINT 1
$end
$molecule
0 3
F 0.801375 0.759315 -0.765361
C -0.650324 -1.048874 -0.073253
C 0.707799 -0.497755 0.047671
C -1.815428 -0.322181 0.503392
H -0.828373 -1.839038 -0.797849
H -2.702322 -0.957940 0.579907
H 1.483584 -1.161543 -0.338611
H 0.950512 -0.181737 1.067478
H -1.586297 0.080843 1.497655
H 1.028890 3.082289 -2.352009
H -2.082522 0.541823 -0.125825
$end
$scan
stre 1 3 1.400000 1.401000 0.100000
$end
