
$comment
	potential surface scanner
$end

$rem
   JOBTYPE  PES_SCAN
   UNRESTRICTED TRUE
   SYM_IGNORE  TRUE
   GEOM_OPT_MAX_CYCLES 400
   SCF_MAX_CYCLES 400
   METHOD   B3LYP
   BASIS   6-31G**
   PDB_PRINT 2
   SCF_CONVERGENCE 6
   THRESH 14
   SCF_PRINT 1
$end
$molecule
0 1
F 1.166326 1.933140 0.314104
C -0.704314 -0.805767 0.235319
C 0.574173 -1.021463 -0.413684
C -1.358438 0.558375 -0.101703
H -0.635489 -0.973288 1.312936
H -1.371021 -1.598568 -0.173420
H 1.425115 -1.458789 0.099593
H 0.694289 -0.798451 -1.470476
H -2.316337 0.641749 0.418714
H -0.627305 1.329300 0.199449
H -1.540102 0.648962 -1.177630
$end
$scan
stre 1 3 3.200000 3.201000 0.100000
$end
