
$comment
	potential surface scanner
$end

$rem
   JOBTYPE  PES_SCAN
   UNRESTRICTED TRUE
   SYM_IGNORE  TRUE
   GEOM_OPT_MAX_CYCLES 400
   SCF_MAX_CYCLES 400
   METHOD   B3LYP
   BASIS   6-31G**
   PDB_PRINT 2
   SCF_CONVERGENCE 6
   THRESH 14
   SCF_PRINT 1
$end
$molecule
0 3
F 0.004338 2.357799 0.748095
C -0.212337 -0.463266 0.256092
C 0.700994 -1.248157 -0.564061
C -1.596602 -0.098723 -0.206924
H -0.044506 -0.439780 1.337656
H -2.301991 -0.926335 -0.025586
H 0.597605 -2.330471 -0.647653
H 1.507918 -0.792832 -1.134219
H -1.967400 0.777361 0.332558
H 0.238045 1.508686 0.427979
H -1.619164 0.110915 -1.280736
$end
$scan
stre 1 3 3.800000 3.801000 0.100000
$end
