
$comment
	potential surface scanner
$end

$rem
   JOBTYPE  PES_SCAN
   UNRESTRICTED TRUE
   SYM_IGNORE  TRUE
   GEOM_OPT_MAX_CYCLES 400
   SCF_MAX_CYCLES 400
   METHOD   B3LYP
   BASIS   6-31G**
   PDB_PRINT 2
   SCF_CONVERGENCE 6
   THRESH 14
   SCF_PRINT 1
$end
$molecule
0 3
F 0.787169 1.797037 -0.395764
C -0.383640 -0.494617 0.471762
C 0.687426 -0.900865 -0.432836
C -1.747691 -0.138307 -0.049726
H -0.304748 -0.755288 1.531192
H -2.261903 -1.026202 -0.452359
H 0.724431 -1.927418 -0.801482
H 1.473346 -0.229943 -0.754811
H -2.385570 0.283648 0.732868
H 0.387465 1.266629 0.267079
H -1.669388 0.580524 -0.872729
$end
$scan
stre 1 3 2.600000 2.601000 0.100000
$end
