
$comment
	potential surface scanner
$end

$rem
   JOBTYPE  PES_SCAN
   UNRESTRICTED TRUE
   SYM_IGNORE  TRUE
   GEOM_OPT_MAX_CYCLES 400
   SCF_MAX_CYCLES 400
   METHOD   B3LYP
   BASIS   6-31G**
   PDB_PRINT 2
   SCF_CONVERGENCE 6
   THRESH 14
   SCF_PRINT 1
$end
$molecule
0 3
F -0.041178 2.379054 0.858802
C -0.195907 -0.455818 0.224349
C 0.696647 -1.279106 -0.581157
C -1.587213 -0.100673 -0.224481
H -0.005721 -0.389137 1.300518
H -2.294611 -0.915368 0.002034
H 0.590028 -2.363811 -0.614310
H 1.497372 -0.852452 -1.181518
H -1.941130 0.797546 0.289618
H 0.218803 1.566359 0.474266
H -1.630190 0.068604 -1.304923
$end
$scan
stre 1 3 3.900000 3.901000 0.100000
$end
