
$comment
	potential surface scanner
$end

$rem
   JOBTYPE  PES_SCAN
   UNRESTRICTED TRUE
   SYM_IGNORE  TRUE
   GEOM_OPT_MAX_CYCLES 400
   SCF_MAX_CYCLES 400
   METHOD   B3LYP
   BASIS   6-31G**
   PDB_PRINT 2
   SCF_CONVERGENCE 6
   THRESH 14
   SCF_PRINT 1
$end
$molecule
0 3
F 0.543023 2.120669 -0.242043
C -0.336831 -0.535246 0.455425
C 0.691535 -1.070313 -0.430661
C -1.684402 -0.124413 -0.071941
H -0.248516 -0.716018 1.530027
H -2.227967 -0.987804 -0.487453
H 0.666619 -2.106684 -0.767405
H 1.452900 -0.426879 -0.866065
H -2.308557 0.316276 0.710803
H 0.335200 1.382959 0.297296
H -1.576106 0.602651 -0.884787
$end
$scan
stre 1 3 3.100000 3.101000 0.100000
$end
