
$comment
	potential surface scanner
$end

$rem
   JOBTYPE  PES_SCAN
   UNRESTRICTED TRUE
   SYM_IGNORE  TRUE
   GEOM_OPT_MAX_CYCLES 400
   SCF_MAX_CYCLES 400
   METHOD   B3LYP
   BASIS   6-31G**
   PDB_PRINT 2
   SCF_CONVERGENCE 6
   THRESH 14
   SCF_PRINT 1
$end
$molecule
0 3
F 0.632653 1.229989 -0.733028
C -0.577929 -1.058569 0.252279
C 0.780824 -0.658496 -0.091417
C -1.756252 -0.135074 0.151590
H -0.756856 -2.059411 0.652497
H -2.692122 -0.645382 0.398604
H 1.232036 -0.975269 -1.030735
H 1.489211 -0.373600 0.685838
H -1.658473 0.727735 0.829960
H 0.468866 2.115495 -1.014058
H -1.855063 0.287784 -0.858335
$end
$scan
stre 1 3 1.900000 1.901000 0.100000
$end
