
$comment
	potential surface scanner
$end

$rem
   JOBTYPE  PES_SCAN
   UNRESTRICTED TRUE
   SYM_IGNORE  TRUE
   GEOM_OPT_MAX_CYCLES 400
   SCF_MAX_CYCLES 400
   METHOD   B3LYP
   BASIS   6-31G**
   PDB_PRINT 2
   SCF_CONVERGENCE 6
   THRESH 14
   SCF_PRINT 1
$end
$molecule
0 3
Se 3.269070 1.056246 0.709668
C 0.462551 -1.891744 0.216912
C -0.790885 -1.495195 -0.400169
C -2.058138 -2.055094 0.236506
Se -0.873610 0.613462 -0.383750
H -1.008815 0.679745 1.083670
H 2.043258 0.222319 0.718269
H 1.389689 -1.879360 -0.343849
H 0.512263 -2.082003 1.284973
H -0.784023 -1.646133 -1.482683
H -2.095371 -1.828272 1.306754
H -2.956705 -1.647338 -0.231080
H -2.071284 -3.146037 0.126277
$end
$scan
stre 1 2 4.000000 4.001000 0.100000
$end
