
$comment
	potential surface scanner
$end

$rem
   JOBTYPE  PES_SCAN
   UNRESTRICTED TRUE
   SYM_IGNORE  TRUE
   GEOM_OPT_MAX_CYCLES 400
   SCF_MAX_CYCLES 400
   METHOD   B3LYP
   BASIS   6-31G**
   PDB_PRINT 2
   SCF_CONVERGENCE 6
   THRESH 14
   SCF_PRINT 1
$end
$molecule
0 1
Se 1.918633 0.397815 0.269771
C 0.560789 -1.165509 0.619455
C -0.665319 -1.046880 -0.271578
C -1.636992 -2.210537 -0.055594
Se -1.582153 0.721770 -0.069058
H -2.089456 0.446609 1.292417
H 3.101914 -0.492883 0.285331
H 1.113542 -2.085102 0.411558
H 0.309304 -1.120657 1.679591
H -0.350923 -1.013528 -1.318888
H -1.991446 -2.245765 0.979897
H -2.508073 -2.119588 -0.708627
H -1.141820 -3.165142 -0.272773
$end
$scan
stre 1 2 2.200000 2.201000 0.100000
$end
