
$comment
	potential surface scanner
$end

$rem
   JOBTYPE  PES_SCAN
   UNRESTRICTED TRUE
   SYM_IGNORE  TRUE
   GEOM_OPT_MAX_CYCLES 400
   SCF_MAX_CYCLES 400
   METHOD   B3LYP
   BASIS   6-31G**
   PDB_PRINT 2
   SCF_CONVERGENCE 6
   THRESH 14
   SCF_PRINT 1
$end
$molecule
0 3
Se 3.362650 1.184033 0.578816
C 0.429776 -1.946663 0.283861
C -0.789243 -1.508578 -0.371392
C -2.092457 -2.064889 0.191705
Se -0.836262 0.600901 -0.280635
H -0.977253 0.612872 1.187669
H 2.120615 0.373146 0.582670
H 1.382047 -1.918659 -0.232991
H 0.432651 -2.163284 1.347956
H -0.738792 -1.621255 -1.457464
H -2.174771 -1.867030 1.265253
H -2.962337 -1.628143 -0.303316
H -2.118624 -3.151857 0.049366
$end
$scan
stre 1 2 4.200000 4.201000 0.100000
$end
