
$comment
	potential surface scanner
$end

$rem
   JOBTYPE  PES_SCAN
   UNRESTRICTED TRUE
   SYM_IGNORE  TRUE
   GEOM_OPT_MAX_CYCLES 400
   SCF_MAX_CYCLES 400
   METHOD   B3LYP
   BASIS   6-31G**
   PDB_PRINT 2
   SCF_CONVERGENCE 6
   THRESH 14
   SCF_PRINT 1
$end
$molecule
0 3
Se 2.290031 0.097804 0.928303
C 0.479566 -1.941721 -0.057878
C -0.781954 -1.869932 -0.541717
C -2.022132 -2.160549 0.250481
Se -0.402259 1.077491 -0.191713
H -1.082993 0.659009 1.051033
H 2.533119 1.477796 1.405895
H 1.332774 -1.812965 -0.712077
H 0.671765 -2.213433 0.974253
H -0.921556 -1.673593 -1.603655
H -1.808193 -2.253647 1.319115
H -2.780100 -1.382977 0.110212
H -2.470070 -3.102684 -0.090750
$end
$scan
stre 1 2 2.800000 2.801000 0.100000
$end
