
$comment
	potential surface scanner
$end

$rem
   JOBTYPE  PES_SCAN
   UNRESTRICTED TRUE
   SYM_IGNORE  TRUE
   GEOM_OPT_MAX_CYCLES 400
   SCF_MAX_CYCLES 400
   METHOD   B3LYP
   BASIS   6-31G**
   PDB_PRINT 2
   SCF_CONVERGENCE 6
   THRESH 14
   SCF_PRINT 1
$end
$molecule
0 1
Se 1.870900 0.175900 -0.051900
C 0.575300 -1.200000 0.467400
C -0.687000 -1.059800 -0.385600
C -1.647200 -2.208000 -0.068200
Se -1.558500 0.649900 0.013200
H -1.851500 0.486400 1.536700
H 3.049900 -0.144000 0.918300
H 1.011300 -2.186800 0.311700
H 0.318200 -1.078300 1.519600
H -0.417700 -1.092800 -1.441300
H -1.916600 -2.175000 0.987500
H -2.546500 -2.108100 -0.675900
H -1.162600 -3.158800 -0.290000
$end
$scan
stre 1 2 1.800000 1.801000 0.100000
$end
