
$comment
	potential surface scanner
$end

$rem
   JOBTYPE  PES_SCAN
   UNRESTRICTED TRUE
   SYM_IGNORE  TRUE
   GEOM_OPT_MAX_CYCLES 400
   SCF_MAX_CYCLES 400
   METHOD   B3LYP
   BASIS   6-31G**
   PDB_PRINT 2
   SCF_CONVERGENCE 6
   THRESH 14
   SCF_PRINT 1
$end
$molecule
0 3
Se 2.352879 0.557444 0.048907
C 0.453168 -1.247223 0.700267
C -0.709419 -1.047174 -0.217304
C -1.696998 -2.224687 -0.083422
Se -1.628417 0.706648 0.042441
H -2.359019 0.273638 1.253253
H 3.399200 -0.472345 0.248676
H 1.068029 -2.126263 0.518052
H 0.348427 -0.964676 1.742283
H -0.361114 -0.992306 -1.251485
H -2.089456 -2.303698 0.935178
H -2.539686 -2.088871 -0.765719
H -1.199596 -3.169885 -0.329625
$end
$scan
stre 1 2 5.700000 5.701000 0.100000
$end
