
$comment
	potential surface scanner
$end

$rem
   JOBTYPE  PES_SCAN
   UNRESTRICTED TRUE
   SYM_IGNORE  TRUE
   GEOM_OPT_MAX_CYCLES 400
   SCF_MAX_CYCLES 400
   METHOD   B3LYP
   BASIS   6-31G**
   PDB_PRINT 2
   SCF_CONVERGENCE 6
   THRESH 14
   SCF_PRINT 1
$end
$molecule
0 3
Se 1.557114 0.091530 1.090685
C 0.530527 -2.081521 -0.139750
C -0.760665 -1.921741 -0.452852
C -1.916018 -2.284979 0.433724
Se -0.210325 2.050698 0.149333
H -0.964420 0.879286 -0.343441
H 2.354139 1.241466 1.617402
H 1.317609 -1.869459 -0.855244
H 0.829381 -2.564453 0.786410
H -1.014734 -1.495475 -1.424414
H -1.574973 -2.693797 1.389022
H -2.554223 -1.417181 0.641173
H -2.555411 -3.033772 -0.050547
$end
$scan
stre 1 2 2.600000 2.601000 0.100000
$end
