
$comment
	potential surface scanner
$end

$rem
   JOBTYPE  PES_SCAN
   UNRESTRICTED TRUE
   SYM_IGNORE  TRUE
   GEOM_OPT_MAX_CYCLES 400
   SCF_MAX_CYCLES 400
   METHOD   B3LYP
   BASIS   6-31G**
   PDB_PRINT 2
   SCF_CONVERGENCE 6
   THRESH 14
   SCF_PRINT 1
$end
$molecule
0 3
Se 3.501862 1.490810 0.123093
C 0.338302 -2.098747 0.506455
C -0.752116 -1.527271 -0.260170
C -2.145902 -2.061611 0.050247
Se -0.720824 0.565081 0.053221
H -0.915752 0.430610 1.507008
H 2.231680 0.717475 0.123582
H 1.359825 -2.049057 0.146783
H 0.177998 -2.414559 1.533087
H -0.549232 -1.528263 -1.334313
H -2.372199 -1.979384 1.117916
H -2.916126 -1.521682 -0.504380
H -2.199517 -3.122808 -0.221029
$end
$scan
stre 1 2 4.700000 4.701000 0.100000
$end
