
$comment
	potential surface scanner
$end

$rem
   JOBTYPE  PES_SCAN
   UNRESTRICTED TRUE
   SYM_IGNORE  TRUE
   GEOM_OPT_MAX_CYCLES 400
   SCF_MAX_CYCLES 400
   METHOD   B3LYP
   BASIS   6-31G**
   PDB_PRINT 2
   SCF_CONVERGENCE 6
   THRESH 14
   SCF_PRINT 1
$end
$molecule
0 3
Se 2.440740 1.244788 -0.125155
C 0.434616 -2.074882 0.281361
C -0.729639 -1.507837 -0.351508
C -2.087227 -2.002322 0.132051
Se -0.656995 0.626148 -0.066629
H -0.693224 0.517021 1.404065
H 2.474428 0.442843 1.118770
H 1.409389 -2.002553 -0.185834
H 0.384429 -2.421324 1.309688
H -0.653898 -1.496186 -1.441251
H -2.175613 -1.917409 1.219716
H -2.909272 -1.446588 -0.323900
H -2.199734 -3.061103 -0.129875
$end
$scan
stre 1 2 3.800000 3.801000 0.100000
$end
