
$comment
	potential surface scanner
$end

$rem
   JOBTYPE  PES_SCAN
   UNRESTRICTED TRUE
   SYM_IGNORE  TRUE
   GEOM_OPT_MAX_CYCLES 400
   SCF_MAX_CYCLES 400
   METHOD   B3LYP
   BASIS   6-31G**
   PDB_PRINT 2
   SCF_CONVERGENCE 6
   THRESH 14
   SCF_PRINT 1
$end
$molecule
0 1
Se 1.850917 0.347966 0.180526
C 0.567212 -1.139423 0.554393
C -0.690291 -1.049486 -0.304663
C -1.632739 -2.228968 -0.055298
Se -1.634690 0.704085 -0.081614
H -1.850958 0.528531 1.366913
H 3.033689 -0.454809 0.563974
H 1.091868 -2.074236 0.337419
H 0.316832 -1.118734 1.617565
H -0.406560 -1.016734 -1.361296
H -1.964413 -2.259713 0.987632
H -2.519554 -2.162023 -0.689489
H -1.123315 -3.175853 -0.274562
$end
$scan
stre 1 2 2.100000 2.101000 0.100000
$end
