
$comment
	potential surface scanner
$end

$rem
   JOBTYPE  PES_SCAN
   UNRESTRICTED TRUE
   SYM_IGNORE  TRUE
   GEOM_OPT_MAX_CYCLES 400
   SCF_MAX_CYCLES 400
   METHOD   B3LYP
   BASIS   6-31G**
   PDB_PRINT 2
   SCF_CONVERGENCE 6
   THRESH 14
   SCF_PRINT 1
$end
$molecule
0 3
Se 3.460692 1.370345 0.301693
C 0.377075 -2.041059 0.418427
C -0.767209 -1.520703 -0.306240
C -2.130351 -2.065386 0.106516
Se -0.759976 0.580517 -0.077985
H -0.943080 0.498021 1.382173
H 2.189079 0.601997 0.309384
H 1.372942 -1.999400 -0.007854
H 0.283159 -2.317695 1.464323
H -0.626559 -1.564849 -1.389357
H -2.299586 -1.934700 1.180133
H -2.941074 -1.567224 -0.429379
H -2.177112 -3.139270 -0.110336
$end
$scan
stre 1 2 4.500000 4.501000 0.100000
$end
