
$comment
	potential surface scanner
$end

$rem
   JOBTYPE  PES_SCAN
   UNRESTRICTED TRUE
   SYM_IGNORE  TRUE
   GEOM_OPT_MAX_CYCLES 400
   SCF_MAX_CYCLES 400
   METHOD   B3LYP
   BASIS   6-31G**
   PDB_PRINT 2
   SCF_CONVERGENCE 6
   THRESH 14
   SCF_PRINT 1
$end
$molecule
0 3
Se 3.516113 1.635025 0.062584
C 0.309234 -2.171407 0.539039
C -0.745181 -1.556577 -0.244110
C -2.162111 -2.047297 0.031671
Se -0.653213 0.530887 0.089497
H -0.847964 0.389039 1.542375
H 2.240579 0.868163 0.063891
H 1.339366 -2.153119 0.201921
H 0.115720 -2.491871 1.558541
H -0.519729 -1.554674 -1.313789
H -2.408777 -1.967377 1.094991
H -2.901658 -1.476657 -0.533791
H -2.244380 -3.103540 -0.251315
$end
$scan
stre 1 2 4.900000 4.901000 0.100000
$end
