
$comment
	potential surface scanner
$end

$rem
   JOBTYPE  PES_SCAN
   UNRESTRICTED TRUE
   SYM_IGNORE  TRUE
   GEOM_OPT_MAX_CYCLES 400
   SCF_MAX_CYCLES 400
   METHOD   B3LYP
   BASIS   6-31G**
   PDB_PRINT 2
   SCF_CONVERGENCE 6
   THRESH 14
   SCF_PRINT 1
$end
$molecule
0 3
Se 2.511691 0.156799 1.029379
C 0.371776 -1.790460 -0.083701
C -0.867802 -1.969265 -0.595659
C -2.096983 -2.263715 0.206152
Se -0.237627 1.041970 -0.100598
H -0.920716 0.662165 1.152679
H 2.768581 1.551088 1.445422
H 1.230237 -1.647363 -0.728526
H 0.559070 -1.882097 0.980816
H -0.998009 -1.913148 -1.675714
H -1.895118 -2.255530 1.280931
H -2.890896 -1.539185 -0.008982
H -2.496204 -3.250661 -0.060697
$end
$scan
stre 1 2 3.000000 3.001000 0.100000
$end
