
$comment
	potential surface scanner
$end

$rem
   JOBTYPE  PES_SCAN
   UNRESTRICTED TRUE
   SYM_IGNORE  TRUE
   GEOM_OPT_MAX_CYCLES 400
   SCF_MAX_CYCLES 400
   METHOD   B3LYP
   BASIS   6-31G**
   PDB_PRINT 2
   SCF_CONVERGENCE 6
   THRESH 14
   SCF_PRINT 1
$end
$molecule
0 1
Se 2.021036 0.484580 0.247915
C 0.523639 -1.217346 0.636827
C -0.678064 -1.062013 -0.264375
C -1.667491 -2.218401 -0.062671
Se -1.577667 0.712504 -0.060982
H -2.099569 0.434216 1.294180
H 3.185430 -0.430911 0.272682
H 1.115113 -2.108207 0.421430
H 0.312389 -1.118924 1.699566
H -0.351219 -1.032624 -1.307428
H -2.036644 -2.250184 0.967608
H -2.527586 -2.113662 -0.728119
H -1.181367 -3.178426 -0.275131
$end
$scan
stre 1 2 2.400000 2.401000 0.100000
$end
