
$comment
	potential surface scanner
$end

$rem
   JOBTYPE  PES_SCAN
   UNRESTRICTED TRUE
   SYM_IGNORE  TRUE
   GEOM_OPT_MAX_CYCLES 400
   SCF_MAX_CYCLES 400
   METHOD   B3LYP
   BASIS   6-31G**
   PDB_PRINT 2
   SCF_CONVERGENCE 6
   THRESH 14
   SCF_PRINT 1
$end
$molecule
0 3
Se 3.544417 1.774669 0.010053
C 0.278879 -2.233612 0.566783
C -0.744112 -1.584073 -0.229719
C -2.178538 -2.037616 0.016177
Se -0.597737 0.498050 0.120947
H -0.795096 0.350847 1.572797
H 2.274649 0.997437 0.009964
H 1.315985 -2.232974 0.251727
H 0.056779 -2.561415 1.578104
H -0.499255 -1.580235 -1.295179
H -2.443329 -1.958145 1.075127
H -2.891221 -1.443089 -0.558977
H -2.283421 -3.089248 -0.276300
$end
$scan
stre 1 2 5.100000 5.101000 0.100000
$end
