
$comment
	potential surface scanner
$end

$rem
   JOBTYPE  PES_SCAN
   UNRESTRICTED TRUE
   SYM_IGNORE  TRUE
   GEOM_OPT_MAX_CYCLES 400
   SCF_MAX_CYCLES 400
   METHOD   B3LYP
   BASIS   6-31G**
   PDB_PRINT 2
   SCF_CONVERGENCE 6
   THRESH 14
   SCF_PRINT 1
$end
$molecule
0 3
Se 3.577084 1.995954 -0.009287
C 0.237409 -2.333731 0.582661
C -0.745943 -1.640890 -0.225707
C -2.203020 -2.018060 0.012726
Se -0.499825 0.438054 0.113744
H -0.705741 0.306276 1.566160
H 2.314427 1.206247 -0.005556
H 1.276580 -2.380417 0.278131
H -0.008691 -2.644623 1.593826
H -0.493300 -1.654398 -1.289189
H -2.472094 -1.913498 1.068455
H -2.879755 -1.394259 -0.574578
H -2.359133 -3.066057 -0.269882
$end
$scan
stre 1 2 5.400000 5.401000 0.100000
$end
