
$comment
	potential surface scanner
$end

$rem
   JOBTYPE  PES_SCAN
   UNRESTRICTED TRUE
   SYM_IGNORE  TRUE
   GEOM_OPT_MAX_CYCLES 400
   SCF_MAX_CYCLES 400
   METHOD   B3LYP
   BASIS   6-31G**
   PDB_PRINT 2
   SCF_CONVERGENCE 6
   THRESH 14
   SCF_PRINT 1
$end
$molecule
0 3
Se 1.600471 0.150294 1.108124
C 0.515040 -2.105965 -0.145329
C -0.775317 -1.940241 -0.455202
C -1.931691 -2.309819 0.427868
Se -0.185505 2.086757 0.150247
H -0.931822 0.905816 -0.332514
H 2.388390 1.306373 1.624788
H 1.303480 -1.878671 -0.854903
H 0.816837 -2.578134 0.785703
H -1.029909 -1.511168 -1.425489
H -1.591293 -2.729179 1.378927
H -2.568524 -1.442824 0.643165
H -2.572157 -3.052640 -0.063883
$end
$scan
stre 1 2 2.700000 2.701000 0.100000
$end
