
$comment
	potential surface scanner
$end

$rem
   JOBTYPE  PES_SCAN
   UNRESTRICTED TRUE
   SYM_IGNORE  TRUE
   GEOM_OPT_MAX_CYCLES 400
   SCF_MAX_CYCLES 400
   METHOD   B3LYP
   BASIS   6-31G**
   PDB_PRINT 2
   SCF_CONVERGENCE 6
   THRESH 14
   SCF_PRINT 1
$end
$molecule
0 1
Se 1.804869 0.298193 0.185836
C 0.585589 -1.114436 0.543374
C -0.684931 -1.040161 -0.308910
C -1.616835 -2.224296 -0.050460
Se -1.640930 0.708190 -0.083816
H -1.848578 0.532569 1.365925
H 3.001117 -0.479595 0.577923
H 1.083238 -2.065949 0.329366
H 0.314508 -1.119306 1.603813
H -0.408055 -1.005944 -1.367536
H -1.941111 -2.254661 0.994850
H -2.508611 -2.165713 -0.678393
H -1.102270 -3.168289 -0.270471
$end
$scan
stre 1 2 2.000000 2.001000 0.100000
$end
