
$comment
	potential surface scanner
$end

$rem
   JOBTYPE  PES_SCAN
   UNRESTRICTED TRUE
   SYM_IGNORE  TRUE
   GEOM_OPT_MAX_CYCLES 400
   SCF_MAX_CYCLES 400
   METHOD   B3LYP
   BASIS   6-31G**
   PDB_PRINT 2
   SCF_CONVERGENCE 6
   THRESH 14
   SCF_PRINT 1
$end
$molecule
0 3
Se 3.530930 1.704413 0.034940
C 0.294223 -2.202671 0.553042
C -0.744233 -1.570069 -0.236977
C -2.170185 -2.042497 0.023803
Se -0.626703 0.515029 0.105415
H -0.822781 0.370007 1.557718
H 2.257743 0.933189 0.037764
H 1.327971 -2.194301 0.227002
H 0.086163 -2.526431 1.568644
H -0.509042 -1.566846 -1.304568
H -2.425649 -1.963323 1.085092
H -2.896511 -1.459504 -0.546109
H -2.263927 -3.096401 -0.264261
$end
$scan
stre 1 2 5.000000 5.001000 0.100000
$end
