
$comment
	potential surface scanner
$end

$rem
   JOBTYPE  PES_SCAN
   UNRESTRICTED TRUE
   SYM_IGNORE  TRUE
   GEOM_OPT_MAX_CYCLES 400
   SCF_MAX_CYCLES 400
   METHOD   B3LYP
   BASIS   6-31G**
   PDB_PRINT 2
   SCF_CONVERGENCE 6
   THRESH 14
   SCF_PRINT 1
$end
$molecule
0 3
Se 2.421225 1.102041 -0.094283
C 0.458662 -2.014216 0.262495
C -0.728311 -1.482507 -0.360084
C -2.067600 -2.004645 0.145220
Se -0.703455 0.651380 -0.091098
H -0.752982 0.551074 1.379539
H 2.434625 0.307208 1.154824
H 1.422181 -1.934646 -0.224594
H 0.431708 -2.342586 1.297767
H -0.666498 -1.480768 -1.450817
H -2.151060 -1.897554 1.231334
H -2.908214 -1.482447 -0.316787
H -2.152281 -3.071737 -0.092015
$end
$scan
stre 1 2 3.600000 3.601000 0.100000
$end
