
$comment
	potential surface scanner
$end

$rem
   JOBTYPE  PES_SCAN
   UNRESTRICTED TRUE
   SYM_IGNORE  TRUE
   GEOM_OPT_MAX_CYCLES 400
   SCF_MAX_CYCLES 400
   METHOD   B3LYP
   BASIS   6-31G**
   PDB_PRINT 2
   SCF_CONVERGENCE 6
   THRESH 14
   SCF_PRINT 1
$end
$molecule
0 3
Se 0.697288 0.089827 1.450101
C 0.547685 -1.677372 0.148323
C -0.804153 -1.861175 -0.279261
C -1.817629 -2.621546 0.505925
Se 0.432299 1.997958 -0.991535
H -0.908141 2.293924 -0.444634
H 2.153284 0.225460 1.267173
H 1.240895 -1.370705 -0.631638
H 0.946442 -2.450983 0.803003
H -1.144913 -1.275044 -1.129410
H -1.353114 -3.285365 1.241438
H -2.492155 -1.941954 1.051237
H -2.459789 -3.222425 -0.149220
$end
$scan
stre 1 2 2.100000 2.101000 0.100000
$end
