
$comment
	potential surface scanner
$end

$rem
   JOBTYPE  PES_SCAN
   UNRESTRICTED TRUE
   SYM_IGNORE  TRUE
   GEOM_OPT_MAX_CYCLES 400
   SCF_MAX_CYCLES 400
   METHOD   B3LYP
   BASIS   6-31G**
   PDB_PRINT 2
   SCF_CONVERGENCE 6
   THRESH 14
   SCF_PRINT 1
$end
$molecule
0 1
Se 2.183307 0.529624 0.135484
C 0.480906 -1.226858 0.651816
C -0.704436 -1.055711 -0.253187
C -1.680982 -2.232573 -0.076154
Se -1.623761 0.702450 -0.027948
H -2.152017 0.397474 1.318619
H 3.267551 -0.461710 0.325476
H 1.087910 -2.108720 0.451970
H 0.324144 -1.035744 1.709434
H -0.371459 -1.013881 -1.293463
H -2.054582 -2.289943 0.951136
H -2.537997 -2.123095 -0.744803
H -1.180585 -3.180711 -0.306879
$end
$scan
stre 1 2 2.600000 2.601000 0.100000
$end
