
$comment
	potential surface scanner
$end

$rem
   JOBTYPE  PES_SCAN
   UNRESTRICTED TRUE
   SYM_IGNORE  TRUE
   GEOM_OPT_MAX_CYCLES 400
   SCF_MAX_CYCLES 400
   METHOD   B3LYP
   BASIS   6-31G**
   PDB_PRINT 2
   SCF_CONVERGENCE 6
   THRESH 14
   SCF_PRINT 1
$end
$molecule
0 3
Se 3.214972 0.997320 0.738897
C 0.478232 -1.870291 0.203115
C -0.784213 -1.485028 -0.404180
C -2.041440 -2.048532 0.249047
Se -0.882975 0.621720 -0.408115
H -1.019850 0.703448 1.058233
H 1.989309 0.164275 0.738127
H 1.397876 -1.865655 -0.369721
H 0.538398 -2.065566 1.269690
H -0.786979 -1.646315 -1.485248
H -2.069459 -1.814973 1.318097
H -2.947068 -1.649574 -0.212449
H -2.048802 -3.140233 0.146005
$end
$scan
stre 1 2 3.900000 3.901000 0.100000
$end
