
$comment
	potential surface scanner
$end

$rem
   JOBTYPE  PES_SCAN
   UNRESTRICTED TRUE
   SYM_IGNORE  TRUE
   GEOM_OPT_MAX_CYCLES 400
   SCF_MAX_CYCLES 400
   METHOD   B3LYP
   BASIS   6-31G**
   PDB_PRINT 2
   SCF_CONVERGENCE 6
   THRESH 14
   SCF_PRINT 1
$end
$molecule
0 1
Se 2.123119 0.492823 0.152755
C 0.499927 -1.206502 0.640140
C -0.696925 -1.049379 -0.259056
C -1.666215 -2.228106 -0.072705
Se -1.621168 0.707068 -0.032497
H -2.137424 0.406450 1.319685
H 3.219375 -0.486596 0.330977
H 1.089284 -2.102370 0.444916
H 0.323280 -1.041758 1.699912
H -0.371473 -1.004990 -1.301735
H -2.034898 -2.282308 0.956671
H -2.527318 -2.128722 -0.737664
H -1.161565 -3.175008 -0.299896
$end
$scan
stre 1 2 2.500000 2.501000 0.100000
$end
