
$comment
	potential surface scanner
$end

$rem
   JOBTYPE  PES_SCAN
   UNRESTRICTED TRUE
   SYM_IGNORE  TRUE
   GEOM_OPT_MAX_CYCLES 400
   SCF_MAX_CYCLES 400
   METHOD   B3LYP
   BASIS   6-31G**
   PDB_PRINT 2
   SCF_CONVERGENCE 6
   THRESH 14
   SCF_PRINT 1
$end
$molecule
0 3
Se 2.339940 0.838849 0.137000
C 0.523133 -1.916003 0.139254
C -0.722772 -1.458426 -0.418113
C -2.004596 -1.983547 0.217017
Se -0.765973 0.696906 -0.238344
H -0.934879 0.640555 1.224620
H 2.301794 0.066243 1.399646
H 1.429025 -1.943255 -0.449143
H 0.595556 -2.137467 1.200274
H -0.746101 -1.513248 -1.508434
H -2.006558 -1.821108 1.299459
H -2.891784 -1.505525 -0.204536
H -2.078784 -3.063373 0.042801
$end
$scan
stre 1 2 3.200000 3.201000 0.100000
$end
