
$comment
	potential surface scanner
$end

$rem
   JOBTYPE  PES_SCAN
   UNRESTRICTED TRUE
   SYM_IGNORE  TRUE
   GEOM_OPT_MAX_CYCLES 400
   SCF_MAX_CYCLES 400
   METHOD   B3LYP
   BASIS   6-31G**
   PDB_PRINT 2
   SCF_CONVERGENCE 6
   THRESH 14
   SCF_PRINT 1
$end
$molecule
0 3
Se 2.410429 1.030800 -0.069653
C 0.471340 -1.985627 0.248308
C -0.727077 -1.472001 -0.367135
C -2.056104 -2.003762 0.154832
Se -0.722328 0.664139 -0.109913
H -0.795269 0.568128 1.359808
H 2.415354 0.240217 1.182181
H 1.428080 -1.908295 -0.251368
H 0.458466 -2.299064 1.288547
H -0.675864 -1.477639 -1.458362
H -2.131595 -1.887052 1.240567
H -2.906307 -1.495282 -0.305038
H -2.131124 -3.073965 -0.071273
$end
$scan
stre 1 2 3.500000 3.501000 0.100000
$end
