
$comment
	potential surface scanner
$end

$rem
   JOBTYPE  PES_SCAN
   UNRESTRICTED TRUE
   SYM_IGNORE  TRUE
   GEOM_OPT_MAX_CYCLES 400
   SCF_MAX_CYCLES 400
   METHOD   B3LYP
   BASIS   6-31G**
   PDB_PRINT 2
   SCF_CONVERGENCE 6
   THRESH 14
   SCF_PRINT 1
$end
$molecule
0 3
Se 2.432330 1.173027 -0.110127
C 0.446479 -2.044203 0.271756
C -0.729460 -1.495179 -0.355847
C -2.077939 -2.004022 0.138207
Se -0.680768 0.638778 -0.077542
H -0.720939 0.533376 1.393217
H 2.454756 0.374716 1.136493
H 1.415686 -1.967839 -0.205335
H 0.408315 -2.380426 1.304103
H -0.660707 -1.487316 -1.446117
H -2.165106 -1.905822 1.224858
H -2.909407 -1.466751 -0.322932
H -2.175240 -3.067742 -0.109236
$end
$scan
stre 1 2 3.700000 3.701000 0.100000
$end
