
$comment
	potential surface scanner
$end

$rem
   JOBTYPE  PES_SCAN
   UNRESTRICTED TRUE
   SYM_IGNORE  TRUE
   GEOM_OPT_MAX_CYCLES 400
   SCF_MAX_CYCLES 400
   METHOD   B3LYP
   BASIS   6-31G**
   PDB_PRINT 2
   SCF_CONVERGENCE 6
   THRESH 14
   SCF_PRINT 1
$end
$molecule
0 3
Se 1.516765 0.036058 1.071896
C 0.545036 -2.055345 -0.128845
C -0.746907 -1.902674 -0.447791
C -1.902748 -2.264938 0.438215
Se -0.230255 2.021310 0.148777
H -0.995264 0.860901 -0.353384
H 2.325761 1.183317 1.600594
H 1.331097 -1.861958 -0.850740
H 0.839029 -2.554467 0.789978
H -0.999057 -1.476370 -1.419739
H -1.562394 -2.669524 1.395549
H -2.543986 -1.398389 0.641569
H -2.539077 -3.017321 -0.044577
$end
$scan
stre 1 2 2.500000 2.501000 0.100000
$end
