
$comment
	potential surface scanner
$end

$rem
   JOBTYPE  PES_SCAN
   UNRESTRICTED TRUE
   SYM_IGNORE  TRUE
   GEOM_OPT_MAX_CYCLES 400
   SCF_MAX_CYCLES 400
   METHOD   B3LYP
   BASIS   6-31G**
   PDB_PRINT 2
   SCF_CONVERGENCE 6
   THRESH 14
   SCF_PRINT 1
$end
$molecule
0 3
Se 3.573660 1.919335 -0.007147
C 0.251191 -2.297127 0.578214
C -0.746552 -1.619608 -0.226158
C -2.195562 -2.027036 0.012942
Se -0.538981 0.460708 0.119771
H -0.741676 0.321353 1.571768
H 2.309470 1.132512 -0.002900
H 1.290366 -2.324228 0.271327
H 0.012803 -2.615964 1.588733
H -0.495310 -1.625446 -1.290078
H -2.464393 -1.934003 1.069789
H -2.885836 -1.413557 -0.569494
H -2.331182 -3.076342 -0.275263
$end
$scan
stre 1 2 5.300000 5.301000 0.100000
$end
