
$comment
	potential surface scanner
$end

$rem
   JOBTYPE  PES_SCAN
   UNRESTRICTED TRUE
   SYM_IGNORE  TRUE
   GEOM_OPT_MAX_CYCLES 400
   SCF_MAX_CYCLES 400
   METHOD   B3LYP
   BASIS   6-31G**
   PDB_PRINT 2
   SCF_CONVERGENCE 6
   THRESH 14
   SCF_PRINT 1
$end
$molecule
0 1
Se 1.966752 0.443423 0.261241
C 0.542588 -1.192956 0.627330
C -0.671096 -1.055417 -0.268714
C -1.652732 -2.214202 -0.058811
Se -1.577845 0.717203 -0.066252
H -2.091970 0.441744 1.292511
H 3.141456 -0.459215 0.279485
H 1.116347 -2.097562 0.415729
H 0.311346 -1.123309 1.689424
H -0.350780 -1.024185 -1.313974
H -2.013859 -2.246684 0.974384
H -2.518852 -2.115998 -0.717431
H -1.163355 -3.172240 -0.273421
$end
$scan
stre 1 2 2.300000 2.301000 0.100000
$end
