
$comment
	potential surface scanner
$end

$rem
   JOBTYPE  PES_SCAN
   UNRESTRICTED TRUE
   SYM_IGNORE  TRUE
   GEOM_OPT_MAX_CYCLES 400
   SCF_MAX_CYCLES 400
   METHOD   B3LYP
   BASIS   6-31G**
   PDB_PRINT 2
   SCF_CONVERGENCE 6
   THRESH 14
   SCF_PRINT 1
$end
$molecule
0 3
Se 2.373772 0.900679 0.059725
C 0.504072 -1.936510 0.180489
C -0.726193 -1.462106 -0.400158
C -2.025282 -1.992511 0.193942
Se -0.750826 0.684355 -0.191279
H -0.893249 0.610443 1.273813
H 2.354353 0.122647 1.319829
H 1.430350 -1.916812 -0.376943
H 0.545547 -2.188405 1.236513
H -0.721749 -1.500288 -1.491642
H -2.055055 -1.845167 1.278205
H -2.900195 -1.506191 -0.243314
H -2.097544 -3.069534 0.002322
$end
$scan
stre 1 2 3.300000 3.301000 0.100000
$end
