
$comment
	potential surface scanner
$end

$rem
   JOBTYPE  PES_SCAN
   UNRESTRICTED TRUE
   SYM_IGNORE  TRUE
   GEOM_OPT_MAX_CYCLES 400
   SCF_MAX_CYCLES 400
   METHOD   B3LYP
   BASIS   6-31G**
   PDB_PRINT 2
   SCF_CONVERGENCE 6
   THRESH 14
   SCF_PRINT 1
$end
$molecule
0 3
Se 2.318137 0.693632 0.353218
C 0.561274 -1.955030 -0.018298
C -0.714911 -1.493775 -0.473534
C -1.947527 -1.948906 0.295115
Se -0.714166 0.713677 -0.369027
H -0.982113 0.717224 1.081376
H 2.000662 0.198125 1.709261
H 1.406469 -2.040541 -0.686296
H 0.724448 -2.180267 1.030674
H -0.842812 -1.564922 -1.554727
H -1.836014 -1.767956 1.368690
H -2.852298 -1.442865 -0.049136
H -2.083149 -3.027797 0.154184
$end
$scan
stre 1 2 3.100000 3.101000 0.100000
$end
