
$comment
	potential surface scanner
$end

$rem
   JOBTYPE  PES_SCAN
   UNRESTRICTED TRUE
   SYM_IGNORE  TRUE
   GEOM_OPT_MAX_CYCLES 400
   SCF_MAX_CYCLES 400
   METHOD   B3LYP
   BASIS   6-31G**
   PDB_PRINT 2
   SCF_CONVERGENCE 6
   THRESH 14
   SCF_PRINT 1
$end
$molecule
0 1
S 1.689694 -0.000232 -0.128001
C -0.131706 0.000039 -0.403453
C -0.803128 -1.272746 0.113426
C -0.802749 1.273005 0.113474
H -0.166071 0.000064 -1.504327
H -1.863705 -1.283808 -0.164650
H -0.327235 -2.168958 -0.291101
H -0.739822 -1.318388 1.206221
H -1.863318 1.284411 -0.164624
H -0.326570 2.169090 -0.290998
H -0.739450 1.318571 1.206272
H 1.603958 -0.000250 1.870160
$end
$scan
stre 1 12 2.100000 2.101000 0.100000
$end
