
$comment
	potential surface scanner
$end

$rem
   JOBTYPE  PES_SCAN
   UNRESTRICTED TRUE
   SYM_IGNORE  TRUE
   GEOM_OPT_MAX_CYCLES 400
   SCF_MAX_CYCLES 400
   METHOD   B3LYP
   BASIS   6-31G**
   PDB_PRINT 2
   SCF_CONVERGENCE 6
   THRESH 14
   SCF_PRINT 1
$end
$molecule
0 1
S 1.693000 -0.000234 -0.098217
C -0.128019 0.000038 -0.394351
C -0.803483 -1.272669 0.117453
C -0.803103 1.272928 0.117501
H -0.153392 0.000062 -1.494611
H -1.861575 -1.284126 -0.170152
H -0.323982 -2.168775 -0.283091
H -0.751058 -1.319307 1.210794
H -1.861187 1.284728 -0.170126
H -0.323317 2.168906 -0.282987
H -0.750686 1.319493 1.210845
H 1.596699 -0.000247 1.799341
$end
$scan
stre 1 12 2.000000 2.001000 0.100000
$end
