
$comment
	potential surface scanner
$end

$rem
   JOBTYPE  PES_SCAN
   UNRESTRICTED TRUE
   SYM_IGNORE  TRUE
   GEOM_OPT_MAX_CYCLES 400
   SCF_MAX_CYCLES 400
   METHOD   B3LYP
   BASIS   6-31G**
   PDB_PRINT 2
   SCF_CONVERGENCE 6
   THRESH 14
   SCF_PRINT 1
$end
$molecule
0 1
S 1.696259 -0.000236 -0.068162
C -0.124156 0.000038 -0.385479
C -0.803705 -1.272593 0.121404
C -0.803326 1.272852 0.121451
H -0.140927 0.000061 -1.485051
H -1.859358 -1.284222 -0.175141
H -0.320890 -2.168654 -0.275318
H -0.761623 -1.320356 1.215195
H -1.858970 1.284824 -0.175115
H -0.320227 2.168784 -0.275216
H -0.761253 1.320547 1.215246
H 1.588072 -0.000247 1.728584
$end
$scan
stre 1 12 1.900000 1.901000 0.100000
$end
