
$comment
	potential surface scanner
$end

$rem
   JOBTYPE  PES_SCAN
   UNRESTRICTED TRUE
   SYM_IGNORE  TRUE
   GEOM_OPT_MAX_CYCLES 400
   SCF_MAX_CYCLES 400
   METHOD   B3LYP
   BASIS   6-31G**
   PDB_PRINT 2
   SCF_CONVERGENCE 6
   THRESH 14
   SCF_PRINT 1
$end
$molecule
0 3
S 1.272114 0.329684 0.543126
C -0.234713 0.431029 -0.093370
C -1.115323 -0.775128 -0.290177
C -0.841745 1.740271 -0.525250
H -1.410348 -0.857990 -1.344516
H -2.045501 -0.656646 0.281449
H -0.619008 -1.694430 0.018880
H 1.732203 -2.092337 2.191557
H -1.104183 1.698712 -1.590693
H -0.164500 2.576187 -0.353764
H -1.780769 1.916750 0.015779
H 1.841675 -2.615303 2.709378
$end
$scan
stre 1 12 4.000000 4.001000 0.100000
$end
