
$comment
	potential surface scanner
$end

$rem
   JOBTYPE  PES_SCAN
   UNRESTRICTED TRUE
   SYM_IGNORE  TRUE
   GEOM_OPT_MAX_CYCLES 400
   SCF_MAX_CYCLES 400
   METHOD   B3LYP
   BASIS   6-31G**
   PDB_PRINT 2
   SCF_CONVERGENCE 6
   THRESH 14
   SCF_PRINT 1
$end
$molecule
0 1
S 1.646545 -0.000178 -0.525679
C -0.168304 0.000065 -0.524318
C -0.771435 -1.273234 0.074432
C -0.771100 1.273519 0.074439
H -0.361152 0.000087 -1.616415
H -1.859052 -1.279517 -0.060369
H -0.354117 -2.172677 -0.383601
H -0.555195 -1.304901 1.148660
H -1.858712 1.280106 -0.060381
H -0.353526 2.172854 -0.383574
H -0.554877 1.305117 1.148672
H 1.490824 -0.000443 2.670529
$end
$scan
stre 1 12 3.300000 3.301000 0.100000
$end
