
$comment
	potential surface scanner
$end

$rem
   JOBTYPE  PES_SCAN
   UNRESTRICTED TRUE
   SYM_IGNORE  TRUE
   GEOM_OPT_MAX_CYCLES 400
   SCF_MAX_CYCLES 400
   METHOD   B3LYP
   BASIS   6-31G**
   PDB_PRINT 2
   SCF_CONVERGENCE 6
   THRESH 14
   SCF_PRINT 1
$end
$molecule
0 1
S 1.674097 -0.000215 -0.245818
C -0.145985 0.000048 -0.440495
C -0.800775 -1.273215 0.097214
C -0.800410 1.273485 0.097248
H -0.218821 0.000073 -1.542795
H -1.870777 -1.281966 -0.140940
H -0.340681 -2.169836 -0.324136
H -0.692508 -1.315249 1.186659
H -1.870406 1.282563 -0.140922
H -0.340043 2.169985 -0.324061
H -0.692148 1.315449 1.186697
H 1.628356 -0.000326 2.153746
$end
$scan
stre 1 12 2.500000 2.501000 0.100000
$end
