
$comment
	potential surface scanner
$end

$rem
   JOBTYPE  PES_SCAN
   UNRESTRICTED TRUE
   SYM_IGNORE  TRUE
   GEOM_OPT_MAX_CYCLES 400
   SCF_MAX_CYCLES 400
   METHOD   B3LYP
   BASIS   6-31G**
   PDB_PRINT 2
   SCF_CONVERGENCE 6
   THRESH 14
   SCF_PRINT 1
$end
$molecule
0 1
S 1.682382 -0.000225 -0.186938
C -0.138881 0.000043 -0.422049
C -0.802094 -1.272911 0.105274
C -0.801721 1.273174 0.105317
H -0.191950 0.000069 -1.523874
H -1.867597 -1.282838 -0.152783
H -0.334058 -2.169395 -0.307616
H -0.716166 -1.316608 1.196616
H -1.867216 1.283439 -0.152761
H -0.333402 2.169534 -0.307523
H -0.715799 1.316796 1.196663
H 1.616399 -0.000280 2.012072
$end
$scan
stre 1 12 2.300000 2.301000 0.100000
$end
