
$comment
	potential surface scanner
$end

$rem
   JOBTYPE  PES_SCAN
   UNRESTRICTED TRUE
   SYM_IGNORE  TRUE
   GEOM_OPT_MAX_CYCLES 400
   SCF_MAX_CYCLES 400
   METHOD   B3LYP
   BASIS   6-31G**
   PDB_PRINT 2
   SCF_CONVERGENCE 6
   THRESH 14
   SCF_PRINT 1
$end
$molecule
0 1
S 1.702355 -0.000239 0.087386
C -0.105932 0.000034 -0.341990
C -0.804326 -1.272870 0.140423
C -0.803947 1.273130 0.140471
H -0.080883 0.000052 -1.437699
H -1.847214 -1.285209 -0.198657
H -0.305931 -2.168189 -0.238583
H -0.810292 -1.325643 1.234955
H -1.846825 1.285807 -0.198630
H -0.305270 2.168314 -0.238481
H -0.809917 1.325848 1.235005
H 1.548083 -0.000234 1.378200
$end
$scan
stre 1 12 1.400000 1.401000 0.100000
$end
