
$comment
	potential surface scanner
$end

$rem
   JOBTYPE  PES_SCAN
   UNRESTRICTED TRUE
   SYM_IGNORE  TRUE
   GEOM_OPT_MAX_CYCLES 400
   SCF_MAX_CYCLES 400
   METHOD   B3LYP
   BASIS   6-31G**
   PDB_PRINT 2
   SCF_CONVERGENCE 6
   THRESH 14
   SCF_PRINT 1
$end
$molecule
0 1
S 1.702746 -0.000240 0.056008
C -0.109744 0.000035 -0.351260
C -0.803953 -1.272669 0.136716
C -0.803573 1.272927 0.136765
H -0.093137 0.000053 -1.447702
H -1.849716 -1.285447 -0.193547
H -0.308721 -2.168196 -0.245898
H -0.800239 -1.324307 1.231275
H -1.849327 1.286045 -0.193517
H -0.308059 2.168322 -0.245796
H -0.799862 1.324509 1.231326
H 1.553486 -0.000232 1.448029
$end
$scan
stre 1 12 1.500000 1.501000 0.100000
$end
