
$comment
	potential surface scanner
$end

$rem
   JOBTYPE  PES_SCAN
   UNRESTRICTED TRUE
   SYM_IGNORE  TRUE
   GEOM_OPT_MAX_CYCLES 400
   SCF_MAX_CYCLES 400
   METHOD   B3LYP
   BASIS   6-31G**
   PDB_PRINT 2
   SCF_CONVERGENCE 6
   THRESH 14
   SCF_PRINT 1
$end
$molecule
0 1
S 1.686217 -0.000229 -0.157529
C -0.135307 0.000041 -0.412758
C -0.802637 -1.272818 0.109356
C -0.802260 1.273078 0.109402
H -0.178955 0.000067 -1.514158
H -1.865717 -1.283342 -0.158752
H -0.330631 -2.169178 -0.299322
H -0.728049 -1.317478 1.201483
H -1.865331 1.283944 -0.158727
H -0.329969 2.169313 -0.299223
H -0.727679 1.317661 1.201532
H 1.610217 -0.000261 1.941095
$end
$scan
stre 1 12 2.200000 2.201000 0.100000
$end
