
$comment
	potential surface scanner
$end

$rem
   JOBTYPE  PES_SCAN
   UNRESTRICTED TRUE
   SYM_IGNORE  TRUE
   GEOM_OPT_MAX_CYCLES 400
   SCF_MAX_CYCLES 400
   METHOD   B3LYP
   BASIS   6-31G**
   PDB_PRINT 2
   SCF_CONVERGENCE 6
   THRESH 14
   SCF_PRINT 1
$end
$molecule
0 1
S 1.678275 -0.000220 -0.216311
C -0.142443 0.000046 -0.431248
C -0.801526 -1.273040 0.101213
C -0.801156 1.273307 0.101252
H -0.205142 0.000071 -1.533389
H -1.869318 -1.282360 -0.146928
H -0.337439 -2.169612 -0.315879
H -0.704422 -1.315845 1.191663
H -1.868942 1.282959 -0.146908
H -0.336792 2.169756 -0.315795
H -0.704059 1.316038 1.191705
H 1.622863 -0.000303 2.083021
$end
$scan
stre 1 12 2.400000 2.401000 0.100000
$end
