
$comment
	potential surface scanner
$end

$rem
   JOBTYPE  PES_SCAN
   UNRESTRICTED TRUE
   SYM_IGNORE  TRUE
   GEOM_OPT_MAX_CYCLES 400
   SCF_MAX_CYCLES 400
   METHOD   B3LYP
   BASIS   6-31G**
   PDB_PRINT 2
   SCF_CONVERGENCE 6
   THRESH 14
   SCF_PRINT 1
$end
$molecule
0 1
S 1.655223 -0.000198 -0.410607
C -0.162555 0.000056 -0.490812
C -0.788341 -1.273902 0.080993
C -0.787985 1.274177 0.081021
H -0.304581 0.000085 -1.589585
H -1.868535 -1.284881 -0.104694
H -0.346514 -2.171020 -0.357996
H -0.623816 -1.307364 1.163952
H -1.868175 1.285472 -0.104675
H -0.345898 2.171181 -0.357940
H -0.623462 1.307567 1.163982
H 1.594539 -0.000375 2.488757
$end
$scan
stre 1 12 3.000000 3.001000 0.100000
$end
