
$comment
	potential surface scanner
$end

$rem
   JOBTYPE  PES_SCAN
   UNRESTRICTED TRUE
   SYM_IGNORE  TRUE
   GEOM_OPT_MAX_CYCLES 400
   SCF_MAX_CYCLES 400
   METHOD   B3LYP
   BASIS   6-31G**
   PDB_PRINT 2
   SCF_CONVERGENCE 6
   THRESH 14
   SCF_PRINT 1
$end
$molecule
0 1
S 1.699158 -0.000237 -0.037324
C -0.120575 0.000037 -0.377952
C -0.803199 -1.272451 0.125293
C -0.802820 1.272710 0.125341
H -0.129564 0.000060 -1.476709
H -1.856810 -1.284698 -0.178701
H -0.317563 -2.168548 -0.267938
H -0.769856 -1.320652 1.219397
H -1.856422 1.285298 -0.178675
H -0.316901 2.168677 -0.267837
H -0.769485 1.320848 1.219448
H 1.573934 -0.000245 1.658057
$end
$scan
stre 1 12 1.800000 1.801000 0.100000
$end
