
$comment
	potential surface scanner
$end

$rem
   JOBTYPE  PES_SCAN
   UNRESTRICTED TRUE
   SYM_IGNORE  TRUE
   GEOM_OPT_MAX_CYCLES 400
   SCF_MAX_CYCLES 400
   METHOD   B3LYP
   BASIS   6-31G**
   PDB_PRINT 2
   SCF_CONVERGENCE 6
   THRESH 14
   SCF_PRINT 1
$end
$molecule
0 1
S 1.666063 -0.000204 -0.306577
C -0.152813 0.000053 -0.459930
C -0.797677 -1.273670 0.089654
C -0.797319 1.273945 0.089682
H -0.248873 0.000076 -1.561851
H -1.872271 -1.281427 -0.126294
H -0.346507 -2.170315 -0.341137
H -0.665098 -1.314564 1.176522
H -1.871908 1.282021 -0.126277
H -0.345884 2.170471 -0.341077
H -0.664740 1.314772 1.176553
H 1.626928 -0.000362 2.293128
$end
$scan
stre 1 12 2.700000 2.701000 0.100000
$end
