
$comment
	potential surface scanner
$end

$rem
   JOBTYPE  PES_SCAN
   UNRESTRICTED TRUE
   SYM_IGNORE  TRUE
   GEOM_OPT_MAX_CYCLES 400
   SCF_MAX_CYCLES 400
   METHOD   B3LYP
   BASIS   6-31G**
   PDB_PRINT 2
   SCF_CONVERGENCE 6
   THRESH 14
   SCF_PRINT 1
$end
$molecule
0 1
S 2.126400 0.172600 -0.001000
C -0.602600 0.507000 0.001200
C 0.472000 -0.574500 0.001000
C -1.995800 -0.105100 -0.001200
H -0.500600 1.146800 0.886100
H -0.499900 1.148900 -0.882200
H 0.380400 -1.208800 0.888400
H 0.378500 -1.212800 -0.883500
H -2.152000 -0.728200 0.885200
H -2.755700 0.682700 -0.000800
H -2.150200 -0.725500 -0.889800
H 2.012100 0.800700 -1.180400
$end
$scan
stre 1 12 1.300000 1.301000 0.100000
$end
