
$comment
	potential surface scanner
$end

$rem
   JOBTYPE  PES_SCAN
   UNRESTRICTED TRUE
   SYM_IGNORE  TRUE
   GEOM_OPT_MAX_CYCLES 400
   SCF_MAX_CYCLES 400
   METHOD   B3LYP
   BASIS   6-31G**
   PDB_PRINT 2
   SCF_CONVERGENCE 6
   THRESH 14
   SCF_PRINT 1
$end
$molecule
0 3
S 1.429754 -0.077493 -1.637659
C -0.920174 -0.044650 -0.077550
C 0.309988 -0.786312 -0.537915
C -1.957380 -0.989561 0.543273
H -1.368203 0.492420 -0.923056
H 1.915921 3.279739 -0.634522
H -0.645818 0.730677 0.658050
H 0.725009 -1.564454 0.103629
H -2.824833 -0.427004 0.902541
H -2.304891 -1.728209 -0.185028
H -1.532612 -1.531252 1.395212
H 1.885837 2.549903 -0.783973
$end
$scan
stre 1 12 2.700000 2.701000 0.100000
$end
