
$comment
	potential surface scanner
$end

$rem
   JOBTYPE  PES_SCAN
   UNRESTRICTED TRUE
   SYM_IGNORE  TRUE
   GEOM_OPT_MAX_CYCLES 400
   SCF_MAX_CYCLES 400
   METHOD   B3LYP
   BASIS   6-31G**
   PDB_PRINT 2
   SCF_CONVERGENCE 6
   THRESH 14
   SCF_PRINT 1
$end
$molecule
0 3
S 1.751718 -0.027564 -1.209753
C -0.736909 0.000634 0.140456
C 0.423432 -0.784864 -0.416106
C -1.955907 -0.892224 0.408418
H -1.012480 0.799977 -0.558804
H 1.330133 3.070107 -1.080509
H -0.445709 0.507963 1.076093
H 0.648068 -1.763986 0.008633
H -2.782272 -0.302662 0.818022
H -2.300669 -1.374081 -0.511054
H -1.715753 -1.678923 1.131585
H 1.508946 2.349427 -0.983981
$end
$scan
stre 1 12 2.300000 2.301000 0.100000
$end
