
$comment
	potential surface scanner
$end

$rem
   JOBTYPE  PES_SCAN
   UNRESTRICTED TRUE
   SYM_IGNORE  TRUE
   GEOM_OPT_MAX_CYCLES 400
   SCF_MAX_CYCLES 400
   METHOD   B3LYP
   BASIS   6-31G**
   PDB_PRINT 2
   SCF_CONVERGENCE 6
   THRESH 14
   SCF_PRINT 1
$end
$molecule
0 3
S 1.857476 0.022880 -1.071622
C -0.706508 0.039173 0.152816
C 0.448516 -0.735812 -0.427642
C -1.929607 -0.854541 0.394268
H -0.977658 0.860249 -0.522997
H 1.147934 2.885037 -1.051783
H -0.412551 0.518362 1.102318
H 0.613024 -1.760857 -0.092540
H -2.755390 -0.272703 0.815587
H -2.273774 -1.311154 -0.538421
H -1.695295 -1.660541 1.097812
H 1.396430 2.173712 -1.034794
$end
$scan
stre 1 12 2.100000 2.101000 0.100000
$end
