
$comment
	potential surface scanner
$end

$rem
   JOBTYPE  PES_SCAN
   UNRESTRICTED TRUE
   SYM_IGNORE  TRUE
   GEOM_OPT_MAX_CYCLES 400
   SCF_MAX_CYCLES 400
   METHOD   B3LYP
   BASIS   6-31G**
   PDB_PRINT 2
   SCF_CONVERGENCE 6
   THRESH 14
   SCF_PRINT 1
$end
$molecule
0 3
S 1.911705 0.150960 -1.019070
C -0.699568 0.107676 0.161809
C 0.471469 -0.618936 -0.440366
C -1.899409 -0.822524 0.378925
H -0.993493 0.940903 -0.489783
H 1.005715 2.571636 -0.998793
H -0.416886 0.568124 1.124417
H 0.630347 -1.665293 -0.177937
H -2.739950 -0.275882 0.817592
H -2.233070 -1.260413 -0.566677
H -1.643232 -1.643003 1.057687
H 1.318971 1.850558 -1.024802
$end
$scan
stre 1 12 1.700000 1.701000 0.100000
$end
