
$comment
	potential surface scanner
$end

$rem
   JOBTYPE  PES_SCAN
   UNRESTRICTED TRUE
   SYM_IGNORE  TRUE
   GEOM_OPT_MAX_CYCLES 400
   SCF_MAX_CYCLES 400
   METHOD   B3LYP
   BASIS   6-31G**
   PDB_PRINT 2
   SCF_CONVERGENCE 6
   THRESH 14
   SCF_PRINT 1
$end
$molecule
0 1
S 2.174411 -0.237782 0.341880
C -0.560154 0.426055 0.057892
C 0.445579 -0.727091 0.140305
C -2.006176 -0.070267 -0.040061
H -0.435045 1.080530 0.927007
H -0.301415 1.028833 -0.824017
H 0.247379 -1.317919 1.052476
H 0.340288 -1.408788 -0.709107
H -2.306788 -0.617939 0.859885
H -2.697429 0.769282 -0.163099
H -2.140320 -0.738743 -0.897748
H 1.952271 1.717629 -1.922412
$end
$scan
stre 1 12 3.100000 3.101000 0.100000
$end
