
$comment
	potential surface scanner
$end

$rem
   JOBTYPE  PES_SCAN
   UNRESTRICTED TRUE
   SYM_IGNORE  TRUE
   GEOM_OPT_MAX_CYCLES 400
   SCF_MAX_CYCLES 400
   METHOD   B3LYP
   BASIS   6-31G**
   PDB_PRINT 2
   SCF_CONVERGENCE 6
   THRESH 14
   SCF_PRINT 1
$end
$molecule
0 3
S 1.958927 0.073309 -0.118456
C -0.718246 -0.269188 0.709940
C 0.452516 -0.760888 -0.104608
C -2.051913 -0.802460 0.168424
H -0.734367 0.827748 0.713508
H 1.592540 2.674514 -1.914397
H -0.603823 -0.571305 1.764648
H 0.512028 -1.821157 -0.352686
H -2.886639 -0.456878 0.786821
H -2.220854 -0.465264 -0.858162
H -2.066136 -1.897776 0.168885
H 1.478567 3.373144 -2.140916
$end
$scan
stre 1 12 3.800000 3.801000 0.100000
$end
