
$comment
	potential surface scanner
$end

$rem
   JOBTYPE  PES_SCAN
   UNRESTRICTED TRUE
   SYM_IGNORE  TRUE
   GEOM_OPT_MAX_CYCLES 400
   SCF_MAX_CYCLES 400
   METHOD   B3LYP
   BASIS   6-31G**
   PDB_PRINT 2
   SCF_CONVERGENCE 6
   THRESH 14
   SCF_PRINT 1
$end
$molecule
0 1
S 2.170478 -0.123716 0.278109
C -0.596721 0.454739 0.049355
C 0.446577 -0.663814 0.091768
C -2.027425 -0.091291 -0.016502
H -0.472090 1.100453 0.925213
H -0.390191 1.079637 -0.828925
H 0.290412 -1.285689 0.989203
H 0.355346 -1.328021 -0.772879
H -2.275225 -0.678495 0.874733
H -2.753550 0.724361 -0.088312
H -2.166929 -0.737738 -0.890156
H 2.131917 1.453375 -1.788603
$end
$scan
stre 1 12 2.700000 2.701000 0.100000
$end
