
$comment
	potential surface scanner
$end

$rem
   JOBTYPE  PES_SCAN
   UNRESTRICTED TRUE
   SYM_IGNORE  TRUE
   GEOM_OPT_MAX_CYCLES 400
   SCF_MAX_CYCLES 400
   METHOD   B3LYP
   BASIS   6-31G**
   PDB_PRINT 2
   SCF_CONVERGENCE 6
   THRESH 14
   SCF_PRINT 1
$end
$molecule
0 1
S 1.621259 -0.124698 0.452284
C -1.120118 -0.012879 0.527033
C -0.039969 -0.687620 0.125340
C -2.527919 -0.377951 0.155206
H -0.990306 0.867355 1.155024
H 2.227684 2.565666 -2.203232
H 2.172808 -1.332965 0.685138
H -0.128442 -1.569706 -0.504364
H -3.144790 -0.528366 1.049718
H -3.003558 0.422946 -0.424891
H -2.563316 -1.292937 -0.442975
H 2.209267 1.974956 -1.751280
$end
$scan
stre 1 12 3.200000 3.201000 0.100000
$end
