
$comment
	potential surface scanner
$end

$rem
   JOBTYPE  PES_SCAN
   UNRESTRICTED TRUE
   SYM_IGNORE  TRUE
   GEOM_OPT_MAX_CYCLES 400
   SCF_MAX_CYCLES 400
   METHOD   B3LYP
   BASIS   6-31G**
   PDB_PRINT 2
   SCF_CONVERGENCE 6
   THRESH 14
   SCF_PRINT 1
$end
$molecule
0 3
S 1.875342 0.050474 -1.060216
C -0.699364 0.057954 0.157218
C 0.458495 -0.707021 -0.429078
C -1.920103 -0.841958 0.387119
H -0.972083 0.885414 -0.510030
H 1.092968 2.794545 -1.041333
H -0.408686 0.528001 1.112412
H 0.620004 -1.737763 -0.110266
H -2.748502 -0.267477 0.813345
H -2.261293 -1.289469 -0.551098
H -1.684525 -1.654974 1.082123
H 1.360345 2.086080 -1.027195
$end
$scan
stre 1 12 2.000000 2.001000 0.100000
$end
