
$comment
	potential surface scanner
$end

$rem
   JOBTYPE  PES_SCAN
   UNRESTRICTED TRUE
   SYM_IGNORE  TRUE
   GEOM_OPT_MAX_CYCLES 400
   SCF_MAX_CYCLES 400
   METHOD   B3LYP
   BASIS   6-31G**
   PDB_PRINT 2
   SCF_CONVERGENCE 6
   THRESH 14
   SCF_PRINT 1
$end
$molecule
0 1
S 2.185160 0.043288 0.117473
C -0.622679 0.495326 0.013939
C 0.461867 -0.583066 0.015055
C -2.032837 -0.106240 0.000533
H -0.490892 1.139152 0.890531
H -0.482011 1.136116 -0.865556
H 0.372174 -1.214871 0.908131
H 0.366681 -1.240738 -0.853744
H -2.209893 -0.725828 0.886759
H -2.794946 0.679098 -0.013429
H -2.188901 -0.737074 -0.881754
H 2.148877 1.018639 -1.394934
$end
$scan
stre 1 12 1.900000 1.901000 0.100000
$end
