
$comment
	potential surface scanner
$end

$rem
   JOBTYPE  PES_SCAN
   UNRESTRICTED TRUE
   SYM_IGNORE  TRUE
   GEOM_OPT_MAX_CYCLES 400
   SCF_MAX_CYCLES 400
   METHOD   B3LYP
   BASIS   6-31G**
   PDB_PRINT 2
   SCF_CONVERGENCE 6
   THRESH 14
   SCF_PRINT 1
$end
$molecule
0 1
S 2.187113 0.058939 0.094192
C -0.623665 0.499029 0.007342
C 0.463992 -0.576380 0.004957
C -2.031948 -0.107093 0.002733
H -0.489424 1.144553 0.882331
H -0.490834 1.139392 -0.873740
H 0.380334 -1.207229 0.898415
H 0.366286 -1.234652 -0.863180
H -2.201365 -0.726233 0.890766
H -2.796877 0.675563 -0.007547
H -2.191081 -0.739623 -0.877784
H 2.140068 0.977536 -1.335481
$end
$scan
stre 1 12 1.800000 1.801000 0.100000
$end
