
$comment
	potential surface scanner
$end

$rem
   JOBTYPE  PES_SCAN
   UNRESTRICTED TRUE
   SYM_IGNORE  TRUE
   GEOM_OPT_MAX_CYCLES 400
   SCF_MAX_CYCLES 400
   METHOD   B3LYP
   BASIS   6-31G**
   PDB_PRINT 2
   SCF_CONVERGENCE 6
   THRESH 14
   SCF_PRINT 1
$end
$molecule
0 3
S 1.910103 0.219929 -1.019435
C -0.706196 0.131484 0.162404
C 0.472839 -0.572647 -0.445856
C -1.892251 -0.817033 0.376512
H -1.014436 0.965006 -0.483023
H 0.975132 2.472638 -0.974873
H -0.429102 0.590351 1.127698
H 0.644676 -1.620528 -0.203119
H -2.739826 -0.286593 0.821368
H -2.221908 -1.253536 -0.571169
H -1.621651 -1.638345 1.048680
H 1.335219 1.713080 -1.016188
$end
$scan
stre 1 12 1.500000 1.501000 0.100000
$end
