
$comment
	potential surface scanner
$end

$rem
   JOBTYPE  PES_SCAN
   UNRESTRICTED TRUE
   SYM_IGNORE  TRUE
   GEOM_OPT_MAX_CYCLES 400
   SCF_MAX_CYCLES 400
   METHOD   B3LYP
   BASIS   6-31G**
   PDB_PRINT 2
   SCF_CONVERGENCE 6
   THRESH 14
   SCF_PRINT 1
$end
$molecule
0 1
S 2.188399 0.096791 0.051611
C -0.627072 0.507548 -0.004207
C 0.468453 -0.560252 -0.014405
C -2.030698 -0.109429 0.007204
H -0.489254 1.155231 0.868664
H -0.510271 1.148284 -0.887321
H 0.396016 -1.192314 0.877603
H 0.368792 -1.217763 -0.883117
H -2.183888 -0.730800 0.896630
H -2.802020 0.667005 0.007222
H -2.195523 -0.742571 -0.871824
H 2.129665 0.882071 -1.225058
$end
$scan
stre 1 12 1.600000 1.601000 0.100000
$end
