
$comment
	potential surface scanner
$end

$rem
   JOBTYPE  PES_SCAN
   UNRESTRICTED TRUE
   SYM_IGNORE  TRUE
   GEOM_OPT_MAX_CYCLES 400
   SCF_MAX_CYCLES 400
   METHOD   B3LYP
   BASIS   6-31G**
   PDB_PRINT 2
   SCF_CONVERGENCE 6
   THRESH 14
   SCF_PRINT 1
$end
$molecule
0 1
S 1.447752 0.137654 0.557543
C -1.284427 -0.092214 0.682912
C -0.151751 -0.523377 0.122028
C -2.656444 -0.518336 0.248777
H -1.228540 0.623235 1.502547
H 2.948958 2.444533 -2.530209
H 2.132710 -1.023501 0.520585
H -0.164230 -1.236499 -0.698962
H -3.220694 -0.942293 1.088465
H -3.236861 0.336919 -0.120066
H -2.615287 -1.266099 -0.548533
H 2.741415 1.963779 -2.002086
$end
$scan
stre 1 12 3.500000 3.501000 0.100000
$end
