
$comment
	potential surface scanner
$end

$rem
   JOBTYPE  PES_SCAN
   UNRESTRICTED TRUE
   SYM_IGNORE  TRUE
   GEOM_OPT_MAX_CYCLES 400
   SCF_MAX_CYCLES 400
   METHOD   B3LYP
   BASIS   6-31G**
   PDB_PRINT 2
   SCF_CONVERGENCE 6
   THRESH 14
   SCF_PRINT 1
$end
$molecule
0 3
S 1.706447 -0.039168 -1.249014
C -0.765423 -0.017176 0.123736
C 0.402224 -0.800558 -0.421158
C -1.968537 -0.920183 0.426639
H -1.058808 0.758230 -0.595321
H 1.454585 3.171802 -1.069210
H -0.474200 0.520728 1.042061
H 0.643551 -1.766539 0.023462
H -2.800893 -0.331564 0.825292
H -2.312483 -1.433637 -0.475864
H -1.711098 -1.681836 1.170436
H 1.597234 2.443705 -0.978061
$end
$scan
stre 1 12 2.400000 2.401000 0.100000
$end
