
$comment
	potential surface scanner
$end

$rem
   JOBTYPE  PES_SCAN
   UNRESTRICTED TRUE
   SYM_IGNORE  TRUE
   GEOM_OPT_MAX_CYCLES 400
   SCF_MAX_CYCLES 400
   METHOD   B3LYP
   BASIS   6-31G**
   PDB_PRINT 2
   SCF_CONVERGENCE 6
   THRESH 14
   SCF_PRINT 1
$end
$molecule
0 1
S 1.431537 0.106062 0.597267
C -1.302836 -0.109713 0.701678
C -0.168395 -0.543733 0.146598
C -2.673899 -0.526183 0.255288
H -1.249158 0.600823 1.525720
H 3.041392 2.528240 -2.618934
H 2.110245 -1.058684 0.558664
H -0.178835 -1.252284 -0.678384
H -3.246253 -0.952195 1.088433
H -3.247391 0.334135 -0.112617
H -2.630867 -1.269454 -0.546121
H 2.827060 2.046789 -2.094590
$end
$scan
stre 1 12 3.700000 3.701000 0.100000
$end
