
$comment
	potential surface scanner
$end

$rem
   JOBTYPE  PES_SCAN
   UNRESTRICTED TRUE
   SYM_IGNORE  TRUE
   GEOM_OPT_MAX_CYCLES 400
   SCF_MAX_CYCLES 400
   METHOD   B3LYP
   BASIS   6-31G**
   PDB_PRINT 2
   SCF_CONVERGENCE 6
   THRESH 14
   SCF_PRINT 1
$end
$molecule
0 3
S 1.299269 -0.185641 -1.750382
C -0.992875 -0.108820 -0.111208
C 0.251245 -0.839681 -0.550975
C -1.994432 -1.046825 0.575031
H -1.468340 0.368551 -0.977308
H 2.229415 3.564491 -0.603903
H -0.729158 0.713067 0.576226
H 0.718925 -1.543495 0.138332
H -2.871955 -0.489787 0.918197
H -2.331516 -1.831219 -0.108967
H -1.543331 -1.532906 1.446858
H 2.145353 2.836066 -0.728899
$end
$scan
stre 1 12 3.200000 3.201000 0.100000
$end
