
$comment
	potential surface scanner
$end

$rem
   JOBTYPE  PES_SCAN
   UNRESTRICTED TRUE
   SYM_IGNORE  TRUE
   GEOM_OPT_MAX_CYCLES 400
   SCF_MAX_CYCLES 400
   METHOD   B3LYP
   BASIS   6-31G**
   PDB_PRINT 2
   SCF_CONVERGENCE 6
   THRESH 14
   SCF_PRINT 1
$end
$molecule
0 1
S 2.182325 0.026684 0.140147
C -0.622096 0.491558 0.019862
C 0.459309 -0.589861 0.024363
C -2.033981 -0.105573 -0.001148
H -0.492328 1.134158 0.897619
H -0.473822 1.132257 -0.858419
H 0.363793 -1.222251 0.917376
H 0.366002 -1.247479 -0.844636
H -2.217918 -0.724870 0.883885
H -2.793388 0.682292 -0.018849
H -2.187475 -0.735462 -0.884550
H 2.162177 1.062350 -1.452646
$end
$scan
stre 1 12 2.000000 2.001000 0.100000
$end
