
$comment
	potential surface scanner
$end

$rem
   JOBTYPE  PES_SCAN
   UNRESTRICTED TRUE
   SYM_IGNORE  TRUE
   GEOM_OPT_MAX_CYCLES 400
   SCF_MAX_CYCLES 400
   METHOD   B3LYP
   BASIS   6-31G**
   PDB_PRINT 2
   SCF_CONVERGENCE 6
   THRESH 14
   SCF_PRINT 1
$end
$molecule
0 3
S 1.829243 0.001631 -1.093430
C -0.719216 0.018442 0.150531
C 0.435132 -0.761796 -0.425295
C -1.942082 -0.872865 0.402411
H -0.991556 0.833480 -0.532152
H 1.240286 2.987746 -1.093961
H -0.423164 0.505901 1.095114
H 0.611035 -1.777828 -0.069207
H -2.766153 -0.287137 0.821719
H -2.289204 -1.336618 -0.525596
H -1.705927 -1.673370 1.111592
H 1.434202 2.266220 -1.018726
$end
$scan
stre 1 12 2.200000 2.201000 0.100000
$end
