
$comment
	potential surface scanner
$end

$rem
   JOBTYPE  PES_SCAN
   UNRESTRICTED TRUE
   SYM_IGNORE  TRUE
   GEOM_OPT_MAX_CYCLES 400
   SCF_MAX_CYCLES 400
   METHOD   B3LYP
   BASIS   6-31G**
   PDB_PRINT 2
   SCF_CONVERGENCE 6
   THRESH 14
   SCF_PRINT 1
$end
$molecule
0 3
S 1.910616 0.185663 -1.021447
C -0.703008 0.120507 0.161196
C 0.472271 -0.594737 -0.444415
C -1.895381 -0.819399 0.377613
H -1.004716 0.953465 -0.487541
H 0.990838 2.515947 -0.983736
H -0.422770 0.580487 1.124871
H 0.638251 -1.641324 -0.189432
H -2.739663 -0.281149 0.819414
H -2.227071 -1.257208 -0.568738
H -1.631363 -1.639907 1.053361
H 1.324594 1.781459 -1.018146
$end
$scan
stre 1 12 1.600000 1.601000 0.100000
$end
