
$comment
	potential surface scanner
$end

$rem
   JOBTYPE  PES_SCAN
   UNRESTRICTED TRUE
   SYM_IGNORE  TRUE
   GEOM_OPT_MAX_CYCLES 400
   SCF_MAX_CYCLES 400
   METHOD   B3LYP
   BASIS   6-31G**
   PDB_PRINT 2
   SCF_CONVERGENCE 6
   THRESH 14
   SCF_PRINT 1
$end
$molecule
0 1
S 2.179096 -0.020653 0.176517
C -0.614729 0.479362 0.026087
C 0.455469 -0.613395 0.042227
C -2.033040 -0.101064 -0.004465
H -0.483871 1.125640 0.900867
H -0.448880 1.112355 -0.854896
H 0.344765 -1.241178 0.938634
H 0.359865 -1.274994 -0.823609
H -2.236093 -0.706797 0.885727
H -2.782046 0.696033 -0.041380
H -2.183667 -0.739588 -0.882127
H 2.155728 1.188082 -1.540577
$end
$scan
stre 1 12 2.200000 2.201000 0.100000
$end
