
$comment
	potential surface scanner
$end

$rem
   JOBTYPE  PES_SCAN
   UNRESTRICTED TRUE
   SYM_IGNORE  TRUE
   GEOM_OPT_MAX_CYCLES 400
   SCF_MAX_CYCLES 400
   METHOD   B3LYP
   BASIS   6-31G**
   PDB_PRINT 2
   SCF_CONVERGENCE 6
   THRESH 14
   SCF_PRINT 1
$end
$molecule
0 3
S 1.308733 -0.154518 -1.741461
C -0.988265 -0.096068 -0.108478
C 0.260240 -0.819377 -0.548373
C -1.987358 -1.041597 0.570979
H -1.463613 0.383307 -0.973524
H 2.193634 3.502334 -0.603370
H -0.729855 0.723651 0.583513
H 0.729270 -1.524209 0.138975
H -2.868315 -0.490032 0.914195
H -2.319176 -1.824606 -0.117189
H -1.536327 -1.529311 1.441927
H 2.113632 2.774228 -0.734193
$end
$scan
stre 1 12 3.100000 3.101000 0.100000
$end
