
$comment
	potential surface scanner
$end

$rem
   JOBTYPE  PES_SCAN
   UNRESTRICTED TRUE
   SYM_IGNORE  TRUE
   GEOM_OPT_MAX_CYCLES 400
   SCF_MAX_CYCLES 400
   METHOD   B3LYP
   BASIS   6-31G**
   PDB_PRINT 2
   SCF_CONVERGENCE 6
   THRESH 14
   SCF_PRINT 1
$end
$molecule
0 1
S 2.167630 -0.164653 0.319242
C -0.588069 0.444522 0.059348
C 0.443980 -0.684975 0.113483
C -2.023329 -0.086276 -0.023173
H -0.466170 1.089753 0.935887
H -0.363078 1.066215 -0.817007
H 0.268800 -1.304339 1.010308
H 0.353991 -1.350463 -0.750568
H -2.289978 -0.666543 0.867125
H -2.739010 0.737286 -0.108392
H -2.158382 -0.734752 -0.896001
H 2.106216 1.558027 -1.887249
$end
$scan
stre 1 12 2.900000 2.901000 0.100000
$end
