
$comment
	potential surface scanner
$end

$rem
   JOBTYPE  PES_SCAN
   UNRESTRICTED TRUE
   SYM_IGNORE  TRUE
   GEOM_OPT_MAX_CYCLES 400
   SCF_MAX_CYCLES 400
   METHOD   B3LYP
   BASIS   6-31G**
   PDB_PRINT 2
   SCF_CONVERGENCE 6
   THRESH 14
   SCF_PRINT 1
$end
$molecule
0 1
S 2.167257 -0.141274 0.295215
C -0.593706 0.447794 0.054658
C 0.445151 -0.676125 0.103608
C -2.027027 -0.088354 -0.019882
H -0.469209 1.093849 0.930340
H -0.373221 1.069748 -0.822973
H 0.282530 -1.297946 1.000753
H 0.353806 -1.341624 -0.760165
H -2.284884 -0.669553 0.872315
H -2.746448 0.732398 -0.100428
H -2.165416 -0.737486 -0.891747
H 2.123767 1.512376 -1.838691
$end
$scan
stre 1 12 2.800000 2.801000 0.100000
$end
