
$comment
	potential surface scanner
$end

$rem
   JOBTYPE  PES_SCAN
   UNRESTRICTED TRUE
   SYM_IGNORE  TRUE
   GEOM_OPT_MAX_CYCLES 400
   SCF_MAX_CYCLES 400
   METHOD   B3LYP
   BASIS   6-31G**
   PDB_PRINT 2
   SCF_CONVERGENCE 6
   THRESH 14
   SCF_PRINT 1
$end
$molecule
0 3
S 1.953360 0.126990 -0.158153
C -0.713551 -0.243018 0.692199
C 0.456386 -0.723440 -0.129674
C -2.044851 -0.797759 0.166395
H -0.744369 0.853563 0.689724
H 1.573263 2.559898 -1.863282
H -0.586346 -0.537576 1.747752
H 0.523084 -1.782358 -0.381506
H -2.878167 -0.459932 0.790879
H -2.228576 -0.468886 -0.860389
H -2.043357 -1.893082 0.173362
H 1.445722 3.269399 -2.044305
$end
$scan
stre 1 12 3.600000 3.601000 0.100000
$end
