
$comment
	potential surface scanner
$end

$rem
   JOBTYPE  PES_SCAN
   UNRESTRICTED TRUE
   SYM_IGNORE  TRUE
   GEOM_OPT_MAX_CYCLES 400
   SCF_MAX_CYCLES 400
   METHOD   B3LYP
   BASIS   6-31G**
   PDB_PRINT 2
   SCF_CONVERGENCE 6
   THRESH 14
   SCF_PRINT 1
$end
$molecule
0 1
S 2.176004 -0.216547 0.316966
C -0.565903 0.429759 0.053448
C 0.446953 -0.717997 0.131387
C -2.009761 -0.072310 -0.037403
H -0.438103 1.085128 0.921607
H -0.312234 1.032920 -0.829242
H 0.261295 -1.309856 1.044656
H 0.339037 -1.400508 -0.717356
H -2.303860 -0.620492 0.864471
H -2.705230 0.764196 -0.157378
H -2.145488 -0.742182 -0.893755
H 1.969890 1.671690 -1.874398
$end
$scan
stre 1 12 3.000000 3.001000 0.100000
$end
