
$comment
	potential surface scanner
$end

$rem
   JOBTYPE  PES_SCAN
   UNRESTRICTED TRUE
   SYM_IGNORE  TRUE
   GEOM_OPT_MAX_CYCLES 400
   SCF_MAX_CYCLES 400
   METHOD   B3LYP
   BASIS   6-31G**
   PDB_PRINT 2
   SCF_CONVERGENCE 6
   THRESH 14
   SCF_PRINT 1
$end
$molecule
0 1
S 2.176432 -0.037720 0.198326
C -0.612930 0.475108 0.032026
C 0.453135 -0.621592 0.052317
C -2.033329 -0.099800 -0.006617
H -0.484258 1.120022 0.908098
H -0.438799 1.107834 -0.847543
H 0.335425 -1.250000 0.948197
H 0.360304 -1.282299 -0.814471
H -2.244242 -0.704382 0.882528
H -2.778793 0.700366 -0.048216
H -2.181405 -0.737948 -0.884990
H 2.161058 1.234214 -1.596652
$end
$scan
stre 1 12 2.300000 2.301000 0.100000
$end
