
$comment
	potential surface scanner
$end

$rem
   JOBTYPE  PES_SCAN
   UNRESTRICTED TRUE
   SYM_IGNORE  TRUE
   GEOM_OPT_MAX_CYCLES 400
   SCF_MAX_CYCLES 400
   METHOD   B3LYP
   BASIS   6-31G**
   PDB_PRINT 2
   SCF_CONVERGENCE 6
   THRESH 14
   SCF_PRINT 1
$end
$molecule
0 1
S 2.188651 0.112119 0.028349
C -0.628675 0.511845 -0.010844
C 0.470316 -0.552638 -0.025228
C -2.029743 -0.110699 0.009711
H -0.488308 1.160811 0.860672
H -0.520742 1.152592 -0.895181
H 0.403448 -1.183620 0.867294
H 0.367924 -1.211531 -0.892753
H -2.174423 -0.732160 0.900511
H -2.804353 0.662437 0.014294
H -2.197549 -0.745160 -0.867787
H 2.126054 0.839805 -1.166036
$end
$scan
stre 1 12 1.500000 1.501000 0.100000
$end
