
$comment
	potential surface scanner
$end

$rem
   JOBTYPE  PES_SCAN
   UNRESTRICTED TRUE
   SYM_IGNORE  TRUE
   GEOM_OPT_MAX_CYCLES 400
   SCF_MAX_CYCLES 400
   METHOD   B3LYP
   BASIS   6-31G**
   PDB_PRINT 2
   SCF_CONVERGENCE 6
   THRESH 14
   SCF_PRINT 1
$end
$molecule
0 3
S 1.951216 0.147746 -0.185357
C -0.710666 -0.228101 0.679295
C 0.457901 -0.708609 -0.144367
C -2.041267 -0.795986 0.166036
H -0.748369 0.868207 0.667054
H 1.561982 2.506102 -1.834970
H -0.575880 -0.512155 1.736806
H 0.528327 -1.768782 -0.389886
H -2.873213 -0.457730 0.792104
H -2.232896 -0.477736 -0.862656
H -2.032815 -1.891173 0.183024
H 1.428278 3.222015 -1.984081
$end
$scan
stre 1 12 3.500000 3.501000 0.100000
$end
