
$comment
	potential surface scanner
$end

$rem
   JOBTYPE  PES_SCAN
   UNRESTRICTED TRUE
   SYM_IGNORE  TRUE
   GEOM_OPT_MAX_CYCLES 400
   SCF_MAX_CYCLES 400
   METHOD   B3LYP
   BASIS   6-31G**
   PDB_PRINT 2
   SCF_CONVERGENCE 6
   THRESH 14
   SCF_PRINT 1
$end
$molecule
0 3
S 1.865948 -0.303396 -0.671649
C -0.603128 -0.202480 0.637250
C 0.563739 -0.945944 0.062356
C -1.945676 -0.683987 0.054973
H -0.470243 0.872013 0.485439
H 1.220969 2.664528 -1.542439
H -0.603418 -0.386324 1.723218
H 0.498389 -2.035080 0.167269
H -2.776907 -0.164134 0.539683
H -1.999944 -0.484681 -1.019107
H -2.086103 -1.759160 0.207964
H 1.048974 3.332445 -1.821959
$end
$scan
stre 1 12 4.000000 4.001000 0.100000
$end
