
$comment
	potential surface scanner
$end

$rem
   JOBTYPE  PES_SCAN
   UNRESTRICTED TRUE
   SYM_IGNORE  TRUE
   GEOM_OPT_MAX_CYCLES 400
   SCF_MAX_CYCLES 400
   METHOD   B3LYP
   BASIS   6-31G**
   PDB_PRINT 2
   SCF_CONVERGENCE 6
   THRESH 14
   SCF_PRINT 1
$end
$molecule
0 1
S 2.188243 0.075358 0.070698
C -0.624555 0.502305 0.001378
C 0.466538 -0.569843 -0.004995
C -2.030997 -0.107785 0.004805
H -0.487533 1.149881 0.874407
H -0.499106 1.141841 -0.881528
H 0.389552 -1.200099 0.888846
H 0.365657 -1.229139 -0.872109
H -2.193766 -0.726460 0.894376
H -2.798254 0.672649 -0.002288
H -2.192953 -0.741661 -0.874223
H 2.129772 0.936754 -1.276364
$end
$scan
stre 1 12 1.700000 1.701000 0.100000
$end
