
$comment
	potential surface scanner
$end

$rem
   JOBTYPE  PES_SCAN
   UNRESTRICTED TRUE
   SYM_IGNORE  TRUE
   GEOM_OPT_MAX_CYCLES 400
   SCF_MAX_CYCLES 400
   METHOD   B3LYP
   BASIS   6-31G**
   PDB_PRINT 2
   SCF_CONVERGENCE 6
   THRESH 14
   SCF_PRINT 1
$end
$molecule
0 1
S 2.187425 0.138679 0.004426
C -0.632784 0.518920 -0.010484
C 0.472544 -0.539126 -0.030775
C -2.029584 -0.113232 0.009055
H -0.495437 1.163828 0.864531
H -0.530904 1.165346 -0.891325
H 0.415322 -1.170326 0.861643
H 0.368834 -1.199142 -0.897445
H -2.167026 -0.743210 0.894988
H -2.809551 0.654403 0.022735
H -2.195774 -0.741347 -0.873283
H 2.129534 0.769006 -1.131063
$end
$scan
stre 1 12 1.400000 1.401000 0.100000
$end
