
$comment
	potential surface scanner
$end

$rem
   JOBTYPE  PES_SCAN
   UNRESTRICTED TRUE
   SYM_IGNORE  TRUE
   GEOM_OPT_MAX_CYCLES 400
   SCF_MAX_CYCLES 400
   METHOD   B3LYP
   BASIS   6-31G**
   PDB_PRINT 2
   SCF_CONVERGENCE 6
   THRESH 14
   SCF_PRINT 1
$end
$molecule
0 1
S 2.173459 -0.084965 0.233184
C -0.604126 0.462825 0.038562
C 0.449906 -0.646103 0.071383
C -2.030702 -0.094663 -0.011097
H -0.474683 1.110668 0.912249
H -0.411527 1.088080 -0.842915
H 0.314418 -1.268912 0.970309
H 0.354186 -1.311150 -0.792006
H -2.262049 -0.684088 0.883081
H -2.764673 0.714705 -0.073704
H -2.175464 -0.742344 -0.883002
H 2.143854 1.359749 -1.683042
$end
$scan
stre 1 12 2.500000 2.501000 0.100000
$end
