
$comment
	potential surface scanner
$end

$rem
   JOBTYPE  PES_SCAN
   UNRESTRICTED TRUE
   SYM_IGNORE  TRUE
   GEOM_OPT_MAX_CYCLES 400
   SCF_MAX_CYCLES 400
   METHOD   B3LYP
   BASIS   6-31G**
   PDB_PRINT 2
   SCF_CONVERGENCE 6
   THRESH 14
   SCF_PRINT 1
$end
$molecule
0 3
S 1.917063 0.256620 -0.989796
C -0.705528 0.137887 0.175979
C 0.476923 -0.553936 -0.436921
C -1.891746 -0.814454 0.371734
H -1.012845 0.981185 -0.457467
H 0.948452 2.451252 -1.002789
H -0.432430 0.582980 1.148991
H 0.651366 -1.605165 -0.214872
H -2.739413 -0.292896 0.826733
H -2.221452 -1.232583 -0.584221
H -1.621101 -1.648645 1.027806
H 1.343310 1.641562 -1.042178
$end
$scan
stre 1 12 1.400000 1.401000 0.100000
$end
