
$comment
	potential surface scanner
$end

$rem
   JOBTYPE  PES_SCAN
   UNRESTRICTED TRUE
   SYM_IGNORE  TRUE
   GEOM_OPT_MAX_CYCLES 400
   SCF_MAX_CYCLES 400
   METHOD   B3LYP
   BASIS   6-31G**
   PDB_PRINT 2
   SCF_CONVERGENCE 6
   THRESH 14
   SCF_PRINT 1
$end
$molecule
0 1
S 1.439731 0.121791 0.577557
C -1.293586 -0.100974 0.692324
C -0.160010 -0.533566 0.134367
C -2.665138 -0.522207 0.251965
H -1.238811 0.611986 1.514198
H 2.994959 2.486346 -2.574601
H 2.121531 -1.041184 0.539749
H -0.171472 -1.244356 -0.688666
H -3.233504 -0.947219 1.088339
H -3.242042 0.335625 -0.116410
H -2.623036 -1.267690 -0.547433
H 2.783978 2.005250 -2.048387
$end
$scan
stre 1 12 3.600000 3.601000 0.100000
$end
