
$comment
	potential surface scanner
$end

$rem
   JOBTYPE  PES_SCAN
   UNRESTRICTED TRUE
   SYM_IGNORE  TRUE
   GEOM_OPT_MAX_CYCLES 400
   SCF_MAX_CYCLES 400
   METHOD   B3LYP
   BASIS   6-31G**
   PDB_PRINT 2
   SCF_CONVERGENCE 6
   THRESH 14
   SCF_PRINT 1
$end
$molecule
0 3
Cl 0.399199 1.194872 0.635053
Cl -0.532972 0.541717 3.296944
C -0.469627 -0.206258 -0.473559
C -0.033256 -0.014011 -1.849070
C -0.117851 -1.533010 0.168056
H -1.507124 0.084783 -0.312274
H -0.492227 0.739745 -2.478367
H 0.845661 -0.532558 -2.217706
H 0.948135 -1.749881 0.059787
H -0.373426 -1.534784 1.228867
H -0.686211 -2.325215 -0.332933
$end
$scan
stre 2 4 5.100000 5.101000 0.100000
$end
