
$comment
	potential surface scanner
$end

$rem
   JOBTYPE  PES_SCAN
   UNRESTRICTED TRUE
   SYM_IGNORE  TRUE
   GEOM_OPT_MAX_CYCLES 400
   SCF_MAX_CYCLES 400
   METHOD   B3LYP
   BASIS   6-31G**
   PDB_PRINT 2
   SCF_CONVERGENCE 6
   THRESH 14
   SCF_PRINT 1
$end
$molecule
0 3
Cl 0.427954 0.389661 1.472772
Cl -0.538705 2.851287 0.686881
C -0.513813 -0.611711 -0.024658
C -0.449601 0.249928 -1.174569
C 0.203481 -1.942652 -0.103129
H -1.499971 -0.668357 0.432633
H -1.188282 1.022633 -1.333273
H 0.420397 0.222496 -1.822938
H 1.226582 -1.817876 -0.466629
H 0.228766 -2.444464 0.866057
H -0.336518 -2.585545 -0.808341
$end
$scan
stre 2 4 3.100000 3.101000 0.100000
$end
