
$comment
	potential surface scanner
$end

$rem
   JOBTYPE  PES_SCAN
   UNRESTRICTED TRUE
   SYM_IGNORE  TRUE
   GEOM_OPT_MAX_CYCLES 400
   SCF_MAX_CYCLES 400
   METHOD   B3LYP
   BASIS   6-31G**
   PDB_PRINT 2
   SCF_CONVERGENCE 6
   THRESH 14
   SCF_PRINT 1
$end
$molecule
0 3
Cl 0.769391 0.646745 1.066748
Cl -1.312448 2.300219 1.857649
C -0.378029 -0.455632 -0.174748
C -0.246867 0.159129 -1.472557
C 0.108600 -1.879558 -0.017903
H -1.331102 -0.255984 0.312420
H -0.804689 1.057154 -1.711454
H 0.518400 -0.175651 -2.165649
H 1.127764 -1.995517 -0.396210
H 0.078698 -2.198792 1.025295
H -0.549421 -2.536714 -0.598787
$end
$scan
stre 2 4 4.000000 4.001000 0.100000
$end
