
$comment
	potential surface scanner
$end

$rem
   JOBTYPE  PES_SCAN
   UNRESTRICTED TRUE
   SYM_IGNORE  TRUE
   GEOM_OPT_MAX_CYCLES 400
   SCF_MAX_CYCLES 400
   METHOD   B3LYP
   BASIS   6-31G**
   PDB_PRINT 2
   SCF_CONVERGENCE 6
   THRESH 14
   SCF_PRINT 1
$end
$molecule
0 3
Cl 0.698942 1.071954 0.683102
Cl -1.023908 0.843700 2.864649
C -0.394145 -0.242168 -0.384160
C -0.112466 0.026808 -1.776684
C -0.033581 -1.609795 0.151199
H -1.373108 0.107051 -0.059463
H -0.597088 0.849326 -2.290289
H 0.683998 -0.503162 -2.289104
H 1.004460 -1.865228 -0.076939
H -0.188233 -1.661902 1.230072
H -0.684574 -2.351184 -0.327582
$end
$scan
stre 2 4 4.700000 4.701000 0.100000
$end
