
$comment
	potential surface scanner
$end

$rem
   JOBTYPE  PES_SCAN
   UNRESTRICTED TRUE
   SYM_IGNORE  TRUE
   GEOM_OPT_MAX_CYCLES 400
   SCF_MAX_CYCLES 400
   METHOD   B3LYP
   BASIS   6-31G**
   PDB_PRINT 2
   SCF_CONVERGENCE 6
   THRESH 14
   SCF_PRINT 1
$end
$molecule
0 1
Cl -1.408369 1.390476 0.034405
Cl 2.382111 -0.131908 1.300227
C -0.735191 -0.171224 -0.585488
C 0.617987 -0.016321 -1.123511
C -0.899035 -1.307216 0.432097
H -1.349108 -0.410466 -1.476506
H 1.132116 -0.898738 -1.491928
H 1.028587 0.955600 -1.370026
H -0.278650 -1.093894 1.304556
H -1.948187 -1.402897 0.715792
H -0.561963 -2.248014 -0.014818
$end
$scan
stre 2 4 3.100000 3.101000 0.100000
$end
