
$comment
	potential surface scanner
$end

$rem
   JOBTYPE  PES_SCAN
   UNRESTRICTED TRUE
   SYM_IGNORE  TRUE
   GEOM_OPT_MAX_CYCLES 400
   SCF_MAX_CYCLES 400
   METHOD   B3LYP
   BASIS   6-31G**
   PDB_PRINT 2
   SCF_CONVERGENCE 6
   THRESH 14
   SCF_PRINT 1
$end
$molecule
0 1
Cl -1.360667 1.388673 0.090001
Cl 2.277875 -0.039544 1.107201
C -0.708115 -0.175373 -0.554168
C 0.667316 -0.029149 -1.059822
C -0.918298 -1.322624 0.433418
H -1.303478 -0.370404 -1.465930
H 1.161364 -0.914025 -1.448569
H 1.044043 0.936134 -1.375832
H -0.332205 -1.130478 1.333183
H -1.976639 -1.418651 0.680670
H -0.570897 -2.259162 -0.015351
$end
$scan
stre 2 4 2.800000 2.801000 0.100000
$end
