
$comment
	potential surface scanner
$end

$rem
   JOBTYPE  PES_SCAN
   UNRESTRICTED TRUE
   SYM_IGNORE  TRUE
   GEOM_OPT_MAX_CYCLES 400
   SCF_MAX_CYCLES 400
   METHOD   B3LYP
   BASIS   6-31G**
   PDB_PRINT 2
   SCF_CONVERGENCE 6
   THRESH 14
   SCF_PRINT 1
$end
$molecule
0 1
Cl -1.348408 1.387073 0.106650
Cl 2.246382 -0.015959 1.043543
C -0.698065 -0.176898 -0.543627
C 0.686077 -0.030935 -1.036174
C -0.924148 -1.327011 0.434797
H -1.284969 -0.359261 -1.462355
H 1.170531 -0.916243 -1.436087
H 1.044722 0.931129 -1.381568
H -0.352883 -1.141329 1.345248
H -1.985904 -1.422582 0.667625
H -0.573036 -2.262587 -0.013250
$end
$scan
stre 2 4 2.700000 2.701000 0.100000
$end
