
$comment
	potential surface scanner
$end

$rem
   JOBTYPE  PES_SCAN
   UNRESTRICTED TRUE
   SYM_IGNORE  TRUE
   GEOM_OPT_MAX_CYCLES 400
   SCF_MAX_CYCLES 400
   METHOD   B3LYP
   BASIS   6-31G**
   PDB_PRINT 2
   SCF_CONVERGENCE 6
   THRESH 14
   SCF_PRINT 1
$end
$molecule
0 3
Cl 0.769839 0.606900 1.120537
Cl -1.294028 2.355295 1.647341
C -0.380204 -0.472197 -0.144801
C -0.263736 0.182250 -1.422899
C 0.116513 -1.896605 -0.031891
H -1.326899 -0.286958 0.359789
H -0.826964 1.085615 -1.625726
H 0.498479 -0.125376 -2.131765
H 1.132290 -1.996942 -0.423645
H 0.098827 -2.245447 1.002087
H -0.543819 -2.541136 -0.624224
$end
$scan
stre 2 4 3.800000 3.801000 0.100000
$end
