
$comment
	potential surface scanner
$end

$rem
   JOBTYPE  PES_SCAN
   UNRESTRICTED TRUE
   SYM_IGNORE  TRUE
   GEOM_OPT_MAX_CYCLES 400
   SCF_MAX_CYCLES 400
   METHOD   B3LYP
   BASIS   6-31G**
   PDB_PRINT 2
   SCF_CONVERGENCE 6
   THRESH 14
   SCF_PRINT 1
$end
$molecule
0 3
Cl -0.158687 0.399860 1.801156
Cl 0.549869 2.470672 0.201958
C -0.704303 -0.723796 -0.094026
C -0.679748 0.295652 -1.061896
C 0.312623 -1.829692 -0.116682
H -1.677595 -0.972082 0.320651
H -1.522182 0.961855 -1.195511
H 0.171992 0.420334 -1.719113
H 1.314941 -1.442802 -0.314222
H 0.323693 -2.383984 0.822864
H 0.049686 -2.530619 -0.920374
$end
$scan
stre 2 4 2.700000 2.701000 0.100000
$end
