
$comment
	potential surface scanner
$end

$rem
   JOBTYPE  PES_SCAN
   UNRESTRICTED TRUE
   SYM_IGNORE  TRUE
   GEOM_OPT_MAX_CYCLES 400
   SCF_MAX_CYCLES 400
   METHOD   B3LYP
   BASIS   6-31G**
   PDB_PRINT 2
   SCF_CONVERGENCE 6
   THRESH 14
   SCF_PRINT 1
$end
$molecule
0 3
Cl 0.774280 0.674750 1.029278
Cl -1.323664 2.230561 1.976731
C -0.373765 -0.439619 -0.191026
C -0.235039 0.145852 -1.503052
C 0.100625 -1.864873 -0.006860
H -1.329158 -0.227049 0.286253
H -0.793819 1.035810 -1.768428
H 0.536565 -0.203138 -2.181972
H 1.119521 -1.995491 -0.381094
H 0.066340 -2.164330 1.042040
H -0.561588 -2.527074 -0.577066
$end
$scan
stre 2 4 4.100000 4.101000 0.100000
$end
