
$comment
	potential surface scanner
$end

$rem
   JOBTYPE  PES_SCAN
   UNRESTRICTED TRUE
   SYM_IGNORE  TRUE
   GEOM_OPT_MAX_CYCLES 400
   SCF_MAX_CYCLES 400
   METHOD   B3LYP
   BASIS   6-31G**
   PDB_PRINT 2
   SCF_CONVERGENCE 6
   THRESH 14
   SCF_PRINT 1
$end
$molecule
0 3
Cl 0.811100 0.780293 0.921584
Cl -1.364975 1.878893 2.268488
C -0.360878 -0.381770 -0.243925
C -0.196275 0.114135 -1.588943
C 0.068666 -1.805603 0.033178
H -1.307132 -0.106142 0.218599
H -0.722153 1.003482 -1.916437
H 0.559703 -0.309795 -2.242282
H 1.081563 -1.992363 -0.333097
H 0.027157 -2.033652 1.099372
H -0.616477 -2.482080 -0.491734
$end
$scan
stre 2 4 4.300000 4.301000 0.100000
$end
