
$comment
	potential surface scanner
$end

$rem
   JOBTYPE  PES_SCAN
   UNRESTRICTED TRUE
   SYM_IGNORE  TRUE
   GEOM_OPT_MAX_CYCLES 400
   SCF_MAX_CYCLES 400
   METHOD   B3LYP
   BASIS   6-31G**
   PDB_PRINT 2
   SCF_CONVERGENCE 6
   THRESH 14
   SCF_PRINT 1
$end
$molecule
0 1
Cl -1.656065 1.357332 -0.219975
Cl 2.557882 -0.757759 1.706452
C -0.814422 -0.170502 -0.693300
C 0.502981 0.074612 -1.255733
C -0.802819 -1.200574 0.472970
H -1.425699 -0.617813 -1.497245
H 1.040607 -0.752069 -1.711804
H 0.956095 1.059793 -1.277429
H -0.195678 -0.809651 1.292387
H -1.833582 -1.385437 0.781474
H -0.349000 -2.132533 0.127002
$end
$scan
stre 2 4 3.800000 3.801000 0.100000
$end
