
$comment
	potential surface scanner
$end

$rem
   JOBTYPE  PES_SCAN
   UNRESTRICTED TRUE
   SYM_IGNORE  TRUE
   GEOM_OPT_MAX_CYCLES 400
   SCF_MAX_CYCLES 400
   METHOD   B3LYP
   BASIS   6-31G**
   PDB_PRINT 2
   SCF_CONVERGENCE 6
   THRESH 14
   SCF_PRINT 1
$end
$molecule
0 1
Cl -1.310986 1.384962 0.153739
Cl 2.172429 0.059723 0.927043
C -0.675184 -0.177907 -0.520221
C 0.727922 -0.037967 -0.987077
C -0.935351 -1.338074 0.433263
H -1.250033 -0.327086 -1.449772
H 1.186386 -0.929470 -1.404558
H 1.043503 0.908077 -1.410485
H -0.390252 -1.178590 1.364515
H -2.003208 -1.427387 0.640102
H -0.584928 -2.270882 -0.021746
$end
$scan
stre 2 4 2.500000 2.501000 0.100000
$end
