
$comment
	potential surface scanner
$end

$rem
   JOBTYPE  PES_SCAN
   UNRESTRICTED TRUE
   SYM_IGNORE  TRUE
   GEOM_OPT_MAX_CYCLES 400
   SCF_MAX_CYCLES 400
   METHOD   B3LYP
   BASIS   6-31G**
   PDB_PRINT 2
   SCF_CONVERGENCE 6
   THRESH 14
   SCF_PRINT 1
$end
$molecule
0 1
Cl -1.287658 1.381916 0.187958
Cl 2.095596 0.105922 0.816980
C -0.653679 -0.178737 -0.501826
C 0.771883 -0.038427 -0.934290
C -0.941839 -1.344557 0.434157
H -1.213916 -0.305969 -1.440098
H 1.195136 -0.932935 -1.384382
H 1.040772 0.887638 -1.430329
H -0.419668 -1.205446 1.381805
H -2.014420 -1.427765 0.619013
H -0.591910 -2.276241 -0.024185
$end
$scan
stre 2 4 2.300000 2.301000 0.100000
$end
