
$comment
	potential surface scanner
$end

$rem
   JOBTYPE  PES_SCAN
   UNRESTRICTED TRUE
   SYM_IGNORE  TRUE
   GEOM_OPT_MAX_CYCLES 400
   SCF_MAX_CYCLES 400
   METHOD   B3LYP
   BASIS   6-31G**
   PDB_PRINT 2
   SCF_CONVERGENCE 6
   THRESH 14
   SCF_PRINT 1
$end
$molecule
0 3
Cl 0.618399 1.129352 0.652208
Cl -0.864562 0.658790 2.987524
C -0.417931 -0.220333 -0.415049
C -0.088178 0.008360 -1.806657
C -0.062926 -1.569736 0.168921
H -1.416061 0.119874 -0.141846
H -0.565013 0.804846 -2.366443
H 0.734899 -0.526779 -2.269161
H 0.985387 -1.817810 -0.016285
H -0.254516 -1.590092 1.242835
H -0.689199 -2.331072 -0.311248
$end
$scan
stre 2 4 4.800000 4.801000 0.100000
$end
