
$comment
	potential surface scanner
$end

$rem
   JOBTYPE  PES_SCAN
   UNRESTRICTED TRUE
   SYM_IGNORE  TRUE
   GEOM_OPT_MAX_CYCLES 400
   SCF_MAX_CYCLES 400
   METHOD   B3LYP
   BASIS   6-31G**
   PDB_PRINT 2
   SCF_CONVERGENCE 6
   THRESH 14
   SCF_PRINT 1
$end
$molecule
0 3
Cl 0.151258 0.360289 2.755689
Cl 0.150032 1.908227 0.523170
C -0.769125 -0.755518 -0.475167
C -0.613882 0.351215 -1.277428
C 0.287254 -1.756683 -0.197445
H -1.714558 -0.875233 0.050798
H -1.453348 0.998716 -1.500167
H 0.287436 0.488138 -1.866104
H 1.163068 -1.632113 -0.838193
H 0.597454 -1.646431 0.852873
H -0.105302 -2.775208 -0.303224
$end
$scan
stre 2 4 2.400000 2.401000 0.100000
$end
