
$comment
	potential surface scanner
$end

$rem
   JOBTYPE  PES_SCAN
   UNRESTRICTED TRUE
   SYM_IGNORE  TRUE
   GEOM_OPT_MAX_CYCLES 400
   SCF_MAX_CYCLES 400
   METHOD   B3LYP
   BASIS   6-31G**
   PDB_PRINT 2
   SCF_CONVERGENCE 6
   THRESH 14
   SCF_PRINT 1
$end
$molecule
0 3
Cl 0.544489 1.161311 0.642863
Cl -0.753563 0.579662 3.093322
C -0.435509 -0.211472 -0.437835
C -0.068593 -0.002013 -1.825263
C -0.081830 -1.549934 0.173167
H -1.447929 0.115361 -0.203263
H -0.536491 0.779872 -2.412431
H 0.770287 -0.539792 -2.255026
H 0.972020 -1.790890 0.011041
H -0.289751 -1.552719 1.244135
H -0.692831 -2.323986 -0.305911
$end
$scan
stre 2 4 4.900000 4.901000 0.100000
$end
