
$comment
	potential surface scanner
$end

$rem
   JOBTYPE  PES_SCAN
   UNRESTRICTED TRUE
   SYM_IGNORE  TRUE
   GEOM_OPT_MAX_CYCLES 400
   SCF_MAX_CYCLES 400
   METHOD   B3LYP
   BASIS   6-31G**
   PDB_PRINT 2
   SCF_CONVERGENCE 6
   THRESH 14
   SCF_PRINT 1
$end
$molecule
0 3
Cl 0.766448 0.622723 1.097948
Cl -1.300611 2.344827 1.746163
C -0.379514 -0.466483 -0.158516
C -0.256497 0.171327 -1.445345
C 0.114085 -1.890410 -0.026415
H -1.330469 -0.277273 0.336819
H -0.818785 1.071639 -1.664134
H 0.507400 -0.146952 -2.147636
H 1.132126 -1.996515 -0.410669
H 0.089765 -2.226555 1.011619
H -0.543651 -2.540929 -0.615030
$end
$scan
stre 2 4 3.900000 3.901000 0.100000
$end
