
$comment
	potential surface scanner
$end

$rem
   JOBTYPE  PES_SCAN
   UNRESTRICTED TRUE
   SYM_IGNORE  TRUE
   GEOM_OPT_MAX_CYCLES 400
   SCF_MAX_CYCLES 400
   METHOD   B3LYP
   BASIS   6-31G**
   PDB_PRINT 2
   SCF_CONVERGENCE 6
   THRESH 14
   SCF_PRINT 1
$end
$molecule
0 1
Cl -1.492666 1.386726 -0.055901
Cl 2.498518 -0.319984 1.477367
C -0.768625 -0.168421 -0.626345
C 0.569378 0.010025 -1.179607
C -0.872712 -1.275051 0.442393
H -1.389220 -0.479817 -1.489672
H 1.092155 -0.858483 -1.569604
H 1.010720 0.988059 -1.333733
H -0.250240 -1.002408 1.297109
H -1.916377 -1.398716 0.735587
H -0.500634 -2.216530 0.027204
$end
$scan
stre 2 4 3.400000 3.401000 0.100000
$end
