
$comment
	potential surface scanner
$end

$rem
   JOBTYPE  PES_SCAN
   UNRESTRICTED TRUE
   SYM_IGNORE  TRUE
   GEOM_OPT_MAX_CYCLES 400
   SCF_MAX_CYCLES 400
   METHOD   B3LYP
   BASIS   6-31G**
   PDB_PRINT 2
   SCF_CONVERGENCE 6
   THRESH 14
   SCF_PRINT 1
$end
$molecule
0 1
Cl -1.271049 1.376811 0.224556
Cl 1.950665 0.118772 0.605909
C -0.614164 -0.179484 -0.476435
C 0.862951 -0.027072 -0.820838
C -0.945480 -1.347390 0.440770
H -1.139280 -0.286617 -1.430919
H 1.187179 -0.914316 -1.371171
H 1.027442 0.857257 -1.436337
H -0.471620 -1.223952 1.416326
H -2.025197 -1.429684 0.580690
H -0.581147 -2.278925 -0.007752
$end
$scan
stre 2 4 1.900000 1.901000 0.100000
$end
