
$comment
	potential surface scanner
$end

$rem
   JOBTYPE  PES_SCAN
   UNRESTRICTED TRUE
   SYM_IGNORE  TRUE
   GEOM_OPT_MAX_CYCLES 400
   SCF_MAX_CYCLES 400
   METHOD   B3LYP
   BASIS   6-31G**
   PDB_PRINT 2
   SCF_CONVERGENCE 6
   THRESH 14
   SCF_PRINT 1
$end
$molecule
0 3
Cl 0.049758 0.442493 2.664530
Cl 0.155781 1.864324 0.301186
C -0.772804 -0.774720 -0.433604
C -0.555268 0.463381 -1.092287
C 0.289682 -1.786627 -0.209075
H -1.728929 -0.922840 0.062529
H -1.431701 1.018875 -1.410581
H 0.283498 0.517181 -1.781107
H 1.157180 -1.631610 -0.856433
H 0.626589 -1.722037 0.836302
H -0.093500 -2.803022 -0.356659
$end
$scan
stre 2 4 2.000000 2.001000 0.100000
$end
