
$comment
	potential surface scanner
$end

$rem
   JOBTYPE  PES_SCAN
   UNRESTRICTED TRUE
   SYM_IGNORE  TRUE
   GEOM_OPT_MAX_CYCLES 400
   SCF_MAX_CYCLES 400
   METHOD   B3LYP
   BASIS   6-31G**
   PDB_PRINT 2
   SCF_CONVERGENCE 6
   THRESH 14
   SCF_PRINT 1
$end
$molecule
0 3
Cl 0.793708 0.807929 0.888283
Cl -1.333929 1.801864 2.386573
C -0.363884 -0.367073 -0.262612
C -0.186764 0.100233 -1.618233
C 0.059930 -1.787265 0.044424
H -1.319337 -0.087835 0.179129
H -0.715195 0.977522 -1.972979
H 0.581657 -0.331412 -2.251687
H 1.079645 -1.978826 -0.299794
H -0.000446 -1.997080 1.113480
H -0.615087 -2.472658 -0.481781
$end
$scan
stre 2 4 4.400000 4.401000 0.100000
$end
