
$comment
	potential surface scanner
$end

$rem
   JOBTYPE  PES_SCAN
   UNRESTRICTED TRUE
   SYM_IGNORE  TRUE
   GEOM_OPT_MAX_CYCLES 400
   SCF_MAX_CYCLES 400
   METHOD   B3LYP
   BASIS   6-31G**
   PDB_PRINT 2
   SCF_CONVERGENCE 6
   THRESH 14
   SCF_PRINT 1
$end
$molecule
0 1
Cl -1.273830 1.377838 0.217365
Cl 1.985572 0.120132 0.658223
C -0.624022 -0.179512 -0.482232
C 0.839636 -0.030539 -0.849799
C -0.945128 -1.347243 0.438935
H -1.158438 -0.290081 -1.432508
H 1.191596 -0.920824 -1.373277
H 1.032298 0.864729 -1.437115
H -0.458630 -1.221358 1.407681
H -2.023255 -1.428936 0.590537
H -0.585500 -2.278806 -0.013011
$end
$scan
stre 2 4 2.000000 2.001000 0.100000
$end
