
$comment
	potential surface scanner
$end

$rem
   JOBTYPE  PES_SCAN
   UNRESTRICTED TRUE
   SYM_IGNORE  TRUE
   GEOM_OPT_MAX_CYCLES 400
   SCF_MAX_CYCLES 400
   METHOD   B3LYP
   BASIS   6-31G**
   PDB_PRINT 2
   SCF_CONVERGENCE 6
   THRESH 14
   SCF_PRINT 1
$end
$molecule
0 3
Cl 0.695533 0.487613 1.291775
Cl -1.090598 2.571787 1.075462
C -0.417523 -0.532031 -0.067213
C -0.332185 0.238722 -1.278602
C 0.148968 -1.934876 -0.073491
H -1.371072 -0.438488 0.449233
H -0.945835 1.119887 -1.414828
H 0.455761 0.034606 -1.997075
H 1.166262 -1.952587 -0.473025
H 0.153557 -2.368863 0.928115
H -0.482574 -2.560370 -0.715547
$end
$scan
stre 2 4 3.300000 3.301000 0.100000
$end
