
$comment
	potential surface scanner
$end

$rem
   JOBTYPE  PES_SCAN
   UNRESTRICTED TRUE
   SYM_IGNORE  TRUE
   GEOM_OPT_MAX_CYCLES 400
   SCF_MAX_CYCLES 400
   METHOD   B3LYP
   BASIS   6-31G**
   PDB_PRINT 2
   SCF_CONVERGENCE 6
   THRESH 14
   SCF_PRINT 1
$end
$molecule
0 1
Cl -1.627447 1.362961 -0.193864
Cl 2.557779 -0.653572 1.552903
C -0.800474 -0.172249 -0.671868
C 0.531889 0.060223 -1.210476
C -0.834645 -1.218702 0.471583
H -1.397839 -0.588141 -1.503843
H 1.078469 -0.777132 -1.634771
H 0.973996 1.048469 -1.273079
H -0.242498 -0.849283 1.311458
H -1.873633 -1.395525 0.755411
H -0.385299 -2.151650 0.121344
$end
$scan
stre 2 4 3.600000 3.601000 0.100000
$end
