
$comment
	potential surface scanner
$end

$rem
   JOBTYPE  PES_SCAN
   UNRESTRICTED TRUE
   SYM_IGNORE  TRUE
   GEOM_OPT_MAX_CYCLES 400
   SCF_MAX_CYCLES 400
   METHOD   B3LYP
   BASIS   6-31G**
   PDB_PRINT 2
   SCF_CONVERGENCE 6
   THRESH 14
   SCF_PRINT 1
$end
$molecule
0 1
Cl -1.662133 1.353963 -0.232556
Cl 2.577805 -0.736946 1.610851
C -0.811015 -0.174973 -0.688187
C 0.517136 0.072054 -1.228016
C -0.820256 -1.202388 0.477544
H -1.405911 -0.618968 -1.506049
H 1.061222 -0.752530 -1.679885
H 0.967531 1.058478 -1.246286
H -0.226856 -0.811954 1.306924
H -1.855637 -1.386317 0.770646
H -0.361588 -2.135019 0.139812
$end
$scan
stre 2 4 3.700000 3.701000 0.100000
$end
