
$comment
	potential surface scanner
$end

$rem
   JOBTYPE  PES_SCAN
   UNRESTRICTED TRUE
   SYM_IGNORE  TRUE
   GEOM_OPT_MAX_CYCLES 400
   SCF_MAX_CYCLES 400
   METHOD   B3LYP
   BASIS   6-31G**
   PDB_PRINT 2
   SCF_CONVERGENCE 6
   THRESH 14
   SCF_PRINT 1
$end
$molecule
0 3
Cl 0.480410 1.176453 0.640965
Cl -0.675918 0.553860 3.191373
C -0.447027 -0.206717 -0.454091
C -0.051521 -0.007871 -1.838994
C -0.094714 -1.540185 0.171339
H -1.472026 0.103208 -0.253061
H -0.515422 0.762153 -2.444651
H 0.802566 -0.541131 -2.243422
H 0.960207 -1.780725 0.015230
H -0.303458 -1.533987 1.242465
H -0.702797 -2.319659 -0.302355
$end
$scan
stre 2 4 5.000000 5.001000 0.100000
$end
