
$comment
	potential surface scanner
$end

$rem
   JOBTYPE  PES_SCAN
   UNRESTRICTED TRUE
   SYM_IGNORE  TRUE
   GEOM_OPT_MAX_CYCLES 400
   SCF_MAX_CYCLES 400
   METHOD   B3LYP
   BASIS   6-31G**
   PDB_PRINT 2
   SCF_CONVERGENCE 6
   THRESH 14
   SCF_PRINT 1
$end
$molecule
0 1
Cl -1.612470 1.365361 -0.183209
Cl 2.541366 -0.605626 1.481907
C -0.793535 -0.174454 -0.662624
C 0.545573 0.051934 -1.190998
C -0.846110 -1.225535 0.472448
H -1.385926 -0.577565 -1.504371
H 1.086066 -0.785538 -1.622388
H 0.990719 1.038637 -1.254165
H -0.262742 -0.861535 1.320295
H -1.888221 -1.402262 0.744383
H -0.394423 -2.158018 0.123519
$end
$scan
stre 2 4 3.500000 3.501000 0.100000
$end
