
$comment
	potential surface scanner
$end

$rem
   JOBTYPE  PES_SCAN
   UNRESTRICTED TRUE
   SYM_IGNORE  TRUE
   GEOM_OPT_MAX_CYCLES 400
   SCF_MAX_CYCLES 400
   METHOD   B3LYP
   BASIS   6-31G**
   PDB_PRINT 2
   SCF_CONVERGENCE 6
   THRESH 14
   SCF_PRINT 1
$end
$molecule
0 3
Cl 0.062925 0.421911 2.667904
Cl 0.160467 1.891166 0.344296
C -0.770181 -0.772177 -0.440170
C -0.570674 0.433233 -1.132140
C 0.289847 -1.783155 -0.207696
H -1.723284 -0.916132 0.063655
H -1.438022 1.016584 -1.420372
H 0.287912 0.515286 -1.791569
H 1.159159 -1.634924 -0.853432
H 0.619190 -1.706770 0.839219
H -0.097052 -2.799625 -0.344894
$end
$scan
stre 2 4 2.100000 2.101000 0.100000
$end
