
$comment
	potential surface scanner
$end

$rem
   JOBTYPE  PES_SCAN
   UNRESTRICTED TRUE
   SYM_IGNORE  TRUE
   GEOM_OPT_MAX_CYCLES 400
   SCF_MAX_CYCLES 400
   METHOD   B3LYP
   BASIS   6-31G**
   PDB_PRINT 2
   SCF_CONVERGENCE 6
   THRESH 14
   SCF_PRINT 1
$end
$molecule
0 3
Cl -0.225377 0.376270 1.698527
Cl 0.738639 2.499843 0.263727
C -0.710291 -0.710571 -0.046937
C -0.734009 0.262613 -1.087610
C 0.322850 -1.809044 -0.100387
H -1.689413 -1.019212 0.314483
H -1.585078 0.919905 -1.217368
H 0.133747 0.423098 -1.715610
H 1.318257 -1.402738 -0.294430
H 0.347914 -2.381424 0.828212
H 0.063050 -2.493342 -0.917801
$end
$scan
stre 2 4 2.900000 2.901000 0.100000
$end
