
$comment
	potential surface scanner
$end

$rem
   JOBTYPE  PES_SCAN
   UNRESTRICTED TRUE
   SYM_IGNORE  TRUE
   GEOM_OPT_MAX_CYCLES 400
   SCF_MAX_CYCLES 400
   METHOD   B3LYP
   BASIS   6-31G**
   PDB_PRINT 2
   SCF_CONVERGENCE 6
   THRESH 14
   SCF_PRINT 1
$end
$molecule
0 3
Cl -0.201729 0.383599 1.741674
Cl 0.656773 2.479034 0.228924
C -0.706416 -0.714694 -0.064735
C -0.710228 0.278536 -1.074578
C 0.319547 -1.816576 -0.106552
H -1.684061 -0.997776 0.318514
H -1.556283 0.942080 -1.202425
H 0.147623 0.418444 -1.720647
H 1.318589 -1.417703 -0.297086
H 0.335592 -2.385681 0.824126
H 0.060882 -2.503864 -0.922411
$end
$scan
stre 2 4 2.800000 2.801000 0.100000
$end
