
$comment
	potential surface scanner
$end

$rem
   JOBTYPE  PES_SCAN
   UNRESTRICTED TRUE
   SYM_IGNORE  TRUE
   GEOM_OPT_MAX_CYCLES 400
   SCF_MAX_CYCLES 400
   METHOD   B3LYP
   BASIS   6-31G**
   PDB_PRINT 2
   SCF_CONVERGENCE 6
   THRESH 14
   SCF_PRINT 1
$end
$molecule
0 3
Cl 0.080771 0.402209 2.685745
Cl 0.164220 1.906288 0.394719
C -0.769044 -0.768993 -0.450339
C -0.586316 0.404098 -1.176944
C 0.289827 -1.777108 -0.205735
H -1.718875 -0.906749 0.062045
H -1.443768 1.013694 -1.436627
H 0.289354 0.510758 -1.809006
H 1.160502 -1.636977 -0.850872
H 0.613055 -1.687426 0.842094
H -0.099439 -2.794397 -0.330279
$end
$scan
stre 2 4 2.200000 2.201000 0.100000
$end
