
$comment
	potential surface scanner
$end

$rem
   JOBTYPE  PES_SCAN
   UNRESTRICTED TRUE
   SYM_IGNORE  TRUE
   GEOM_OPT_MAX_CYCLES 400
   SCF_MAX_CYCLES 400
   METHOD   B3LYP
   BASIS   6-31G**
   PDB_PRINT 2
   SCF_CONVERGENCE 6
   THRESH 14
   SCF_PRINT 1
$end
$molecule
0 1
Cl -1.301881 1.383377 0.166613
Cl 2.134649 0.074415 0.871516
C -0.664735 -0.178926 -0.511625
C 0.749533 -0.037385 -0.961229
C -0.938306 -1.340428 0.435222
H -1.231124 -0.320331 -1.445873
H 1.190360 -0.927998 -1.400337
H 1.042729 0.902102 -1.415166
H -0.405528 -1.188662 1.374831
H -2.008684 -1.427604 0.630225
H -0.586715 -2.273160 -0.019374
$end
$scan
stre 2 4 2.400000 2.401000 0.100000
$end
