
$comment
	potential surface scanner
$end

$rem
   JOBTYPE  PES_SCAN
   UNRESTRICTED TRUE
   SYM_IGNORE  TRUE
   GEOM_OPT_MAX_CYCLES 400
   SCF_MAX_CYCLES 400
   METHOD   B3LYP
   BASIS   6-31G**
   PDB_PRINT 2
   SCF_CONVERGENCE 6
   THRESH 14
   SCF_PRINT 1
$end
$molecule
0 3
Cl 0.774665 0.572640 1.168175
Cl -1.270987 2.390990 1.442922
C -0.383660 -0.488485 -0.119610
C -0.279570 0.206696 -1.374161
C 0.122899 -1.911093 -0.043848
H -1.324264 -0.316684 0.400043
H -0.848246 1.113691 -1.541076
H 0.477224 -0.075544 -2.099341
H 1.136559 -1.997235 -0.444218
H 0.113658 -2.283680 0.981984
H -0.537981 -2.545897 -0.646067
$end
$scan
stre 2 4 3.600000 3.601000 0.100000
$end
