
$comment
	potential surface scanner
$end

$rem
   JOBTYPE  PES_SCAN
   UNRESTRICTED TRUE
   SYM_IGNORE  TRUE
   GEOM_OPT_MAX_CYCLES 400
   SCF_MAX_CYCLES 400
   METHOD   B3LYP
   BASIS   6-31G**
   PDB_PRINT 2
   SCF_CONVERGENCE 6
   THRESH 14
   SCF_PRINT 1
$end
$molecule
0 1
Cl -1.277994 1.379087 0.208042
Cl 2.021956 0.116468 0.710340
C -0.633959 -0.179378 -0.488367
C 0.816634 -0.033410 -0.878602
C -0.944371 -1.346551 0.437530
H -1.177025 -0.295147 -1.434681
H 1.194090 -0.925491 -1.377137
H 1.036117 0.873330 -1.435238
H -0.446329 -1.216702 1.399661
H -2.020836 -1.428681 0.599884
H -0.587984 -2.278124 -0.016631
$end
$scan
stre 2 4 2.100000 2.101000 0.100000
$end
