
$comment
	potential surface scanner
$end

$rem
   JOBTYPE  PES_SCAN
   UNRESTRICTED TRUE
   SYM_IGNORE  TRUE
   GEOM_OPT_MAX_CYCLES 400
   SCF_MAX_CYCLES 400
   METHOD   B3LYP
   BASIS   6-31G**
   PDB_PRINT 2
   SCF_CONVERGENCE 6
   THRESH 14
   SCF_PRINT 1
$end
$molecule
0 1
Cl -1.327324 1.386240 0.132725
Cl 2.209563 0.026342 0.984205
C -0.686328 -0.177332 -0.530868
C 0.706306 -0.035661 -1.012385
C -0.930445 -1.333279 0.433600
H -1.267533 -0.340797 -1.455677
H 1.179066 -0.924541 -1.418723
H 1.044501 0.918693 -1.397613
H -0.373511 -1.160759 1.355473
H -1.995549 -1.426508 0.652003
H -0.578447 -2.267001 -0.017938
$end
$scan
stre 2 4 2.600000 2.601000 0.100000
$end
