
$comment
	potential surface scanner
$end

$rem
   JOBTYPE  PES_SCAN
   UNRESTRICTED TRUE
   SYM_IGNORE  TRUE
   GEOM_OPT_MAX_CYCLES 400
   SCF_MAX_CYCLES 400
   METHOD   B3LYP
   BASIS   6-31G**
   PDB_PRINT 2
   SCF_CONVERGENCE 6
   THRESH 14
   SCF_PRINT 1
$end
$molecule
0 3
Cl 0.323068 1.203744 0.630300
Cl -0.392263 0.548680 3.398647
C -0.489711 -0.206937 -0.491050
C -0.017762 -0.018574 -1.857585
C -0.140071 -1.529315 0.162806
H -1.537886 0.063904 -0.366581
H -0.470682 0.723246 -2.505107
H 0.881498 -0.522847 -2.195580
H 0.935456 -1.718424 0.112437
H -0.452117 -1.544869 1.208126
H -0.659230 -2.333207 -0.371615
$end
$scan
stre 2 4 5.200000 5.201000 0.100000
$end
