
$comment
	potential surface scanner
$end

$rem
   JOBTYPE  PES_SCAN
   UNRESTRICTED TRUE
   SYM_IGNORE  TRUE
   GEOM_OPT_MAX_CYCLES 400
   SCF_MAX_CYCLES 400
   METHOD   B3LYP
   BASIS   6-31G**
   PDB_PRINT 2
   SCF_CONVERGENCE 6
   THRESH 14
   SCF_PRINT 1
$end
$molecule
0 1
Cl -1.458281 1.389321 -0.019814
Cl 2.460531 -0.241218 1.420550
C -0.756587 -0.169216 -0.611491
C 0.585704 -0.000890 -1.161554
C -0.882946 -1.288780 0.436977
H -1.377447 -0.452604 -1.484566
H 1.107259 -0.875624 -1.538855
H 1.017166 0.975414 -1.349983
H -0.257211 -1.041536 1.296948
H -1.928302 -1.398446 0.729765
H -0.529590 -2.231022 0.006822
$end
$scan
stre 2 4 3.300000 3.301000 0.100000
$end
