
$comment
	potential surface scanner
$end

$rem
   JOBTYPE  PES_SCAN
   UNRESTRICTED TRUE
   SYM_IGNORE  TRUE
   GEOM_OPT_MAX_CYCLES 400
   SCF_MAX_CYCLES 400
   METHOD   B3LYP
   BASIS   6-31G**
   PDB_PRINT 2
   SCF_CONVERGENCE 6
   THRESH 14
   SCF_PRINT 1
$end
$molecule
0 3
Cl 0.377877 0.370033 1.520788
Cl -0.411315 2.829981 0.589793
C -0.535385 -0.621895 -0.019607
C -0.472548 0.263744 -1.148218
C 0.212130 -1.934928 -0.108195
H -1.523920 -0.705279 0.427874
H -1.249792 0.990360 -1.336023
H 0.416168 0.285829 -1.770657
H 1.234660 -1.783791 -0.462888
H 0.241453 -2.446663 0.855736
H -0.309037 -2.581992 -0.823795
$end
$scan
stre 2 4 3.000000 3.001000 0.100000
$end
