
$comment
	potential surface scanner
$end

$rem
   JOBTYPE  PES_SCAN
   UNRESTRICTED TRUE
   SYM_IGNORE  TRUE
   GEOM_OPT_MAX_CYCLES 400
   SCF_MAX_CYCLES 400
   METHOD   B3LYP
   BASIS   6-31G**
   PDB_PRINT 2
   SCF_CONVERGENCE 6
   THRESH 14
   SCF_PRINT 1
$end
$molecule
0 1
Cl -1.392213 1.389908 0.053071
Cl 2.346639 -0.099504 1.235667
C -0.726273 -0.172634 -0.574994
C 0.633770 -0.020906 -1.103116
C -0.905586 -1.312769 0.432243
H -1.334184 -0.396591 -1.473523
H 1.142624 -0.904497 -1.475610
H 1.034432 0.949273 -1.371313
H -0.294786 -1.106906 1.312883
H -1.957549 -1.407672 0.705589
H -0.566575 -2.252304 -0.016096
$end
$scan
stre 2 4 3.000000 3.001000 0.100000
$end
