
$comment
	potential surface scanner
$end

$rem
   JOBTYPE  PES_SCAN
   UNRESTRICTED TRUE
   SYM_IGNORE  TRUE
   GEOM_OPT_MAX_CYCLES 400
   SCF_MAX_CYCLES 400
   METHOD   B3LYP
   BASIS   6-31G**
   PDB_PRINT 2
   SCF_CONVERGENCE 6
   THRESH 14
   SCF_PRINT 1
$end
$molecule
0 3
Cl 0.826964 0.758376 0.946528
Cl -1.383438 1.928048 2.159615
C -0.358128 -0.393650 -0.228613
C -0.203943 0.127775 -1.562992
C 0.074483 -1.819932 0.025837
H -1.297467 -0.120704 0.248462
H -0.732130 1.023908 -1.867501
H 0.544193 -0.284312 -2.232842
H 1.081668 -2.004447 -0.356931
H 0.047442 -2.060167 1.089841
H -0.619345 -2.489497 -0.496600
$end
$scan
stre 2 4 4.200000 4.201000 0.100000
$end
