
$comment
	potential surface scanner
$end

$rem
   JOBTYPE  PES_SCAN
   UNRESTRICTED TRUE
   SYM_IGNORE  TRUE
   GEOM_OPT_MAX_CYCLES 400
   SCF_MAX_CYCLES 400
   METHOD   B3LYP
   BASIS   6-31G**
   PDB_PRINT 2
   SCF_CONVERGENCE 6
   THRESH 14
   SCF_PRINT 1
$end
$molecule
0 1
Cl -1.606742 1.372290 -0.153950
Cl 2.387786 -0.804802 2.031337
C -0.808617 -0.152988 -0.694794
C 0.456778 0.081719 -1.357658
C -0.730097 -1.201104 0.458984
H -1.481094 -0.602352 -1.449669
H 0.960916 -0.755007 -1.833703
H 0.912561 1.064150 -1.417984
H -0.063608 -0.819673 1.238950
H -1.740473 -1.384381 0.829453
H -0.307110 -2.132451 0.073833
$end
$scan
stre 2 4 4.100000 4.101000 0.100000
$end
