
$comment
	potential surface scanner
$end

$rem
   JOBTYPE  PES_SCAN
   UNRESTRICTED TRUE
   SYM_IGNORE  TRUE
   GEOM_OPT_MAX_CYCLES 400
   SCF_MAX_CYCLES 400
   METHOD   B3LYP
   BASIS   6-31G**
   PDB_PRINT 2
   SCF_CONVERGENCE 6
   THRESH 14
   SCF_PRINT 1
$end
$molecule
0 1
Cl -1.637647 1.363097 -0.193878
Cl 2.495236 -0.767989 1.822787
C -0.814201 -0.164719 -0.695047
C 0.487173 0.075285 -1.291145
C -0.776816 -1.201503 0.466909
H -1.449148 -0.611139 -1.481459
H 1.010303 -0.754364 -1.758879
H 0.945355 1.057993 -1.320155
H -0.145505 -0.812851 1.269574
H -1.800134 -1.385047 0.799960
H -0.334315 -2.133364 0.106133
$end
$scan
stre 2 4 3.900000 3.901000 0.100000
$end
