
$comment
	potential surface scanner
$end

$rem
   JOBTYPE  PES_SCAN
   UNRESTRICTED TRUE
   SYM_IGNORE  TRUE
   GEOM_OPT_MAX_CYCLES 400
   SCF_MAX_CYCLES 400
   METHOD   B3LYP
   BASIS   6-31G**
   PDB_PRINT 2
   SCF_CONVERGENCE 6
   THRESH 14
   SCF_PRINT 1
$end
$molecule
0 3
Cl 0.292469 1.195188 0.636171
Cl -0.364976 0.609243 3.489197
C -0.493963 -0.213175 -0.499248
C -0.010265 -0.017011 -1.862624
C -0.143674 -1.538455 0.149602
H -1.546513 0.046520 -0.387730
H -0.458776 0.727673 -2.509699
H 0.893463 -0.516400 -2.195436
H 0.931403 -1.729168 0.095242
H -0.453426 -1.559345 1.195723
H -0.665442 -2.339669 -0.386400
$end
$scan
stre 2 4 5.300000 5.301000 0.100000
$end
