
$comment
	potential surface scanner
$end

$rem
   JOBTYPE  PES_SCAN
   UNRESTRICTED TRUE
   SYM_IGNORE  TRUE
   GEOM_OPT_MAX_CYCLES 400
   SCF_MAX_CYCLES 400
   METHOD   B3LYP
   BASIS   6-31G**
   PDB_PRINT 2
   SCF_CONVERGENCE 6
   THRESH 14
   SCF_PRINT 1
$end
$molecule
0 3
Cl 0.692067 0.499930 1.271489
Cl -1.109202 2.588069 1.162180
C -0.413722 -0.529106 -0.077926
C -0.326469 0.226748 -1.299830
C 0.148878 -1.933824 -0.069145
H -1.369726 -0.430342 0.433266
H -0.931244 1.114600 -1.438130
H 0.455125 0.009055 -2.021022
H 1.167709 -1.957939 -0.464540
H 0.148740 -2.358427 0.936439
H -0.481861 -2.563364 -0.707977
$end
$scan
stre 2 4 3.400000 3.401000 0.100000
$end
