
$comment
	potential surface scanner
$end

$rem
   JOBTYPE  PES_SCAN
   UNRESTRICTED TRUE
   SYM_IGNORE  TRUE
   GEOM_OPT_MAX_CYCLES 400
   SCF_MAX_CYCLES 400
   METHOD   B3LYP
   BASIS   6-31G**
   PDB_PRINT 2
   SCF_CONVERGENCE 6
   THRESH 14
   SCF_PRINT 1
$end
$molecule
0 1
Cl -1.434956 1.389725 0.005824
Cl 2.425066 -0.186697 1.358539
C -0.746308 -0.170548 -0.598846
C 0.601556 -0.008283 -1.142056
C -0.891689 -1.298199 0.434662
H -1.363030 -0.432631 -1.481506
H 1.120870 -0.886415 -1.514163
H 1.023402 0.966467 -1.357616
H -0.267978 -1.067898 1.300572
H -1.938961 -1.399922 0.723309
H -0.547675 -2.240201 -0.003920
$end
$scan
stre 2 4 3.200000 3.201000 0.100000
$end
