
$comment
	potential surface scanner
$end

$rem
   JOBTYPE  PES_SCAN
   UNRESTRICTED TRUE
   SYM_IGNORE  TRUE
   GEOM_OPT_MAX_CYCLES 400
   SCF_MAX_CYCLES 400
   METHOD   B3LYP
   BASIS   6-31G**
   PDB_PRINT 2
   SCF_CONVERGENCE 6
   THRESH 14
   SCF_PRINT 1
$end
$molecule
0 3
Cl 0.765769 0.551634 1.201128
Cl -1.242202 2.431631 1.329681
C -0.389519 -0.500833 -0.105926
C -0.290729 0.218762 -1.345747
C 0.128647 -1.919823 -0.052124
H -1.329948 -0.343817 0.418464
H -0.865405 1.125025 -1.494185
H 0.466334 -0.046117 -2.077209
H 1.141897 -1.992731 -0.455968
H 0.124506 -2.307222 0.968270
H -0.529054 -2.551110 -0.661581
$end
$scan
stre 2 4 3.500000 3.501000 0.100000
$end
