
$comment
	potential surface scanner
$end

$rem
   JOBTYPE  PES_SCAN
   UNRESTRICTED TRUE
   SYM_IGNORE  TRUE
   GEOM_OPT_MAX_CYCLES 400
   SCF_MAX_CYCLES 400
   METHOD   B3LYP
   BASIS   6-31G**
   PDB_PRINT 2
   SCF_CONVERGENCE 6
   THRESH 14
   SCF_PRINT 1
$end
$molecule
0 3
Cl 0.688305 0.472955 1.319205
Cl -1.051832 2.568648 0.983667
C -0.425275 -0.537696 -0.056431
C -0.340285 0.250631 -1.254748
C 0.150859 -1.936183 -0.078996
H -1.378264 -0.454418 0.462479
H -0.971146 1.118187 -1.393896
H 0.458301 0.065836 -1.966882
H 1.166620 -1.942513 -0.482560
H 0.161924 -2.380638 0.918004
H -0.478915 -2.559408 -0.725037
$end
$scan
stre 2 4 3.200000 3.201000 0.100000
$end
