
$comment
	potential surface scanner
$end

$rem
   JOBTYPE  PES_SCAN
   UNRESTRICTED TRUE
   SYM_IGNORE  TRUE
   GEOM_OPT_MAX_CYCLES 400
   SCF_MAX_CYCLES 400
   METHOD   B3LYP
   BASIS   6-31G**
   PDB_PRINT 2
   SCF_CONVERGENCE 6
   THRESH 14
   SCF_PRINT 1
$end
$molecule
0 3
Cl 0.100815 0.380965 2.714175
Cl 0.160922 1.913305 0.453556
C -0.766779 -0.762165 -0.459537
C -0.600265 0.376730 -1.225590
C 0.289982 -1.768848 -0.202938
H -1.712854 -0.890449 0.062665
H -1.448442 1.007655 -1.462192
H 0.288879 0.501205 -1.834963
H 1.160615 -1.639069 -0.849918
H 0.611446 -1.668033 0.844594
H -0.104031 -2.785898 -0.315050
$end
$scan
stre 2 4 2.300000 2.301000 0.100000
$end
