
$comment
	potential surface scanner
$end

$rem
   JOBTYPE  PES_SCAN
   UNRESTRICTED TRUE
   SYM_IGNORE  TRUE
   GEOM_OPT_MAX_CYCLES 400
   SCF_MAX_CYCLES 400
   METHOD   B3LYP
   BASIS   6-31G**
   PDB_PRINT 2
   SCF_CONVERGENCE 6
   THRESH 14
   SCF_PRINT 1
$end
$molecule
0 1
Cl -1.376174 1.389287 0.071835
Cl 2.310921 -0.069014 1.171724
C -0.717181 -0.173960 -0.564515
C 0.650167 -0.025147 -1.082155
C -0.911770 -1.317910 0.432606
H -1.318978 -0.382932 -1.469995
H 1.152420 -0.909797 -1.460703
H 1.039316 0.942775 -1.373945
H -0.312242 -1.118998 1.322256
H -1.966745 -1.412887 0.694130
H -0.569435 -2.256019 -0.016437
$end
$scan
stre 2 4 2.900000 2.901000 0.100000
$end
