
$comment
	potential surface scanner
$end

$rem
   JOBTYPE  PES_SCAN
   UNRESTRICTED TRUE
   SYM_IGNORE  TRUE
   GEOM_OPT_MAX_CYCLES 400
   SCF_MAX_CYCLES 400
   METHOD   B3LYP
   BASIS   6-31G**
   PDB_PRINT 2
   SCF_CONVERGENCE 6
   THRESH 14
   SCF_PRINT 1
$end
$molecule
0 3
Cl -0.019224 0.459505 2.680475
Cl 0.207000 1.799194 0.262161
C -0.776366 -0.780228 -0.437425
C -0.542174 0.494963 -1.056064
C 0.295151 -1.784440 -0.212974
H -1.734827 -0.935154 0.051243
H -1.429580 1.035931 -1.373588
H 0.255521 0.518626 -1.796077
H 1.147081 -1.641348 -0.884527
H 0.661944 -1.695869 0.821095
H -0.084240 -2.805781 -0.329517
$end
$scan
stre 2 4 1.900000 1.901000 0.100000
$end
