
$comment
	potential surface scanner
$end

$rem
   JOBTYPE  PES_SCAN
   UNRESTRICTED TRUE
   SYM_IGNORE  TRUE
   GEOM_OPT_MAX_CYCLES 400
   SCF_MAX_CYCLES 400
   METHOD   B3LYP
   BASIS   6-31G**
   PDB_PRINT 2
   SCF_CONVERGENCE 6
   THRESH 14
   SCF_PRINT 1
$end
$molecule
0 3
Cl 0.761639 1.007264 0.724209
Cl -1.167730 1.054299 2.731248
C -0.373700 -0.268858 -0.352966
C -0.134986 0.047522 -1.741988
C -0.004576 -1.653765 0.128412
H -1.334394 0.077784 0.023769
H -0.626155 0.894096 -2.208047
H 0.638177 -0.470681 -2.300166
H 1.021829 -1.912211 -0.144548
H -0.119788 -1.733888 1.210343
H -0.680019 -2.376163 -0.345465
$end
$scan
stre 2 4 4.600000 4.601000 0.100000
$end
