
$comment
	potential surface scanner
$end

$rem
   JOBTYPE  PES_SCAN
   UNRESTRICTED TRUE
   SYM_IGNORE  TRUE
   GEOM_OPT_MAX_CYCLES 400
   SCF_MAX_CYCLES 400
   METHOD   B3LYP
   BASIS   6-31G**
   PDB_PRINT 2
   SCF_CONVERGENCE 6
   THRESH 14
   SCF_PRINT 1
$end
$molecule
0 3
Cl 0.168301 0.328245 2.800723
Cl 0.136775 1.891899 0.598259
C -0.763929 -0.738717 -0.481358
C -0.625229 0.326457 -1.332736
C 0.289207 -1.740646 -0.192740
H -1.699479 -0.836998 0.066296
H -1.457368 0.987650 -1.543901
H 0.278175 0.459710 -1.919421
H 1.163781 -1.628127 -0.837265
H 0.600426 -1.626316 0.856453
H -0.110374 -2.757759 -0.289507
$end
$scan
stre 2 4 2.500000 2.501000 0.100000
$end
