
$comment
	potential surface scanner
$end

$rem
   JOBTYPE  PES_SCAN
   UNRESTRICTED TRUE
   SYM_IGNORE  TRUE
   GEOM_OPT_MAX_CYCLES 400
   SCF_MAX_CYCLES 400
   METHOD   B3LYP
   BASIS   6-31G**
   PDB_PRINT 2
   SCF_CONVERGENCE 6
   THRESH 14
   SCF_PRINT 1
$end
$molecule
0 3
Cl 0.799128 0.970731 0.745826
Cl -1.212688 1.163892 2.623517
C -0.372224 -0.288372 -0.335393
C -0.149075 0.062425 -1.714166
C 0.006137 -1.679202 0.118551
H -1.323701 0.058672 0.063200
H -0.651034 0.915946 -2.155296
H 0.622212 -0.435741 -2.293186
H 1.031695 -1.928409 -0.165745
H -0.100629 -1.777744 1.199776
H -0.669524 -2.396800 -0.362282
$end
$scan
stre 2 4 4.500000 4.501000 0.100000
$end
