
$comment
	potential surface scanner
$end

$rem
   JOBTYPE  PES_SCAN
   UNRESTRICTED TRUE
   SYM_IGNORE  TRUE
   GEOM_OPT_MAX_CYCLES 400
   SCF_MAX_CYCLES 400
   METHOD   B3LYP
   BASIS   6-31G**
   PDB_PRINT 2
   SCF_CONVERGENCE 6
   THRESH 14
   SCF_PRINT 1
$end
$molecule
0 3
Cl 0.773424 0.590598 1.143058
Cl -1.284929 2.369666 1.546781
C -0.381547 -0.479529 -0.131950
C -0.271304 0.194097 -1.399313
C 0.119331 -1.903485 -0.037585
H -1.324737 -0.299782 0.380833
H -0.836285 1.100026 -1.584494
H 0.488242 -0.101734 -2.116075
H 1.133765 -1.997342 -0.434341
H 0.106303 -2.264290 0.992381
H -0.541965 -2.542826 -0.634490
$end
$scan
stre 2 4 3.700000 3.701000 0.100000
$end
