
$comment
	potential surface scanner
$end

$rem
   JOBTYPE  PES_SCAN
   UNRESTRICTED TRUE
   SYM_IGNORE  TRUE
   GEOM_OPT_MAX_CYCLES 400
   SCF_MAX_CYCLES 400
   METHOD   B3LYP
   BASIS   6-31G**
   PDB_PRINT 2
   SCF_CONVERGENCE 6
   THRESH 14
   SCF_PRINT 1
$end
$molecule
0 1
Cl -1.282175 1.380449 0.198559
Cl 2.058750 0.112634 0.763122
C -0.643743 -0.179179 -0.494749
C 0.794108 -0.036183 -0.906768
C -0.943410 -1.345759 0.435923
H -1.195434 -0.300324 -1.437098
H 1.195436 -0.929605 -1.380841
H 1.038826 0.880742 -1.433173
H -0.433639 -1.211740 1.391142
H -2.018073 -1.428279 0.609170
H -0.590349 -2.277356 -0.020485
$end
$scan
stre 2 4 2.200000 2.201000 0.100000
$end
