
$comment
	potential surface scanner
$end

$rem
   JOBTYPE  PES_SCAN
   UNRESTRICTED TRUE
   SYM_IGNORE  TRUE
   GEOM_OPT_MAX_CYCLES 400
   SCF_MAX_CYCLES 400
   METHOD   B3LYP
   BASIS   6-31G**
   PDB_PRINT 2
   SCF_CONVERGENCE 6
   THRESH 14
   SCF_PRINT 1
$end
$molecule
0 3
Cl -0.135488 0.418585 1.880092
Cl 0.492697 2.416097 0.184462
C -0.706714 -0.728839 -0.122904
C -0.661126 0.313449 -1.055524
C 0.310086 -1.830134 -0.125692
H -1.672855 -0.950776 0.320694
H -1.507857 0.970999 -1.201475
H 0.179184 0.418640 -1.730829
H 1.312776 -1.446534 -0.327693
H 0.319039 -2.370265 0.822040
H 0.050546 -2.545824 -0.918368
$end
$scan
stre 2 4 2.600000 2.601000 0.100000
$end
