
$comment
	potential surface scanner
$end

$rem
   JOBTYPE  PES_SCAN
   UNRESTRICTED TRUE
   SYM_IGNORE  TRUE
   GEOM_OPT_MAX_CYCLES 400
   SCF_MAX_CYCLES 400
   METHOD   B3LYP
   BASIS   6-31G**
   PDB_PRINT 2
   SCF_CONVERGENCE 6
   THRESH 14
   SCF_PRINT 1
$end
$molecule
0 3
F 0.233413 1.190229 1.873453
F 0.795317 -1.187740 -1.269540
C -0.352684 0.796872 -0.524830
C 0.723122 -0.171067 -0.363918
C -1.757261 0.567815 -0.063797
H -0.195822 1.608128 -1.240772
H 1.710008 0.100494 0.008491
H 0.308878 0.281002 1.685726
H -2.373279 0.139839 -0.869950
H -1.806922 -0.124270 0.781634
H -2.231073 1.509099 0.235205
$end
$scan
stre 1 3 2.400000 2.401000 0.100000
$end
