
$comment
	potential surface scanner
$end

$rem
   JOBTYPE  PES_SCAN
   UNRESTRICTED TRUE
   SYM_IGNORE  TRUE
   GEOM_OPT_MAX_CYCLES 400
   SCF_MAX_CYCLES 400
   METHOD   B3LYP
   BASIS   6-31G**
   PDB_PRINT 2
   SCF_CONVERGENCE 6
   THRESH 14
   SCF_PRINT 1
$end
$molecule
0 3
F 0.132015 0.389434 2.319577
F 0.885988 -1.136972 -1.041355
C -0.405820 0.861945 -0.696624
C 0.743016 0.032427 -0.355747
C -1.756861 0.718727 -0.074329
H -0.321014 1.462601 -1.605897
H 1.714258 0.458328 -0.099118
H 0.402914 -0.098037 1.562990
H -2.307207 -0.127824 -0.517262
H -1.671305 0.534856 0.998751
H -2.362284 1.614916 -0.239284
$end
$scan
stre 1 3 3.000000 3.001000 0.100000
$end
