
$comment
	potential surface scanner
$end

$rem
   JOBTYPE  PES_SCAN
   UNRESTRICTED TRUE
   SYM_IGNORE  TRUE
   GEOM_OPT_MAX_CYCLES 400
   SCF_MAX_CYCLES 400
   METHOD   B3LYP
   BASIS   6-31G**
   PDB_PRINT 2
   SCF_CONVERGENCE 6
   THRESH 14
   SCF_PRINT 1
$end
$molecule
0 3
F 0.323096 1.522587 1.530586
F 0.811554 -1.058754 -1.598405
C -0.311090 0.728781 -0.420743
C 0.689345 -0.320676 -0.450686
C -1.741460 0.480395 -0.045766
H -0.090368 1.671744 -0.924583
H 1.639977 -0.260912 0.077555
H 0.119075 0.716317 1.941834
H -2.351889 0.203223 -0.919435
H -1.835461 -0.346827 0.668531
H -2.199080 1.374525 0.392812
$end
$scan
stre 1 3 2.100000 2.101000 0.100000
$end
