
$comment
	potential surface scanner
$end

$rem
   JOBTYPE  PES_SCAN
   UNRESTRICTED TRUE
   SYM_IGNORE  TRUE
   GEOM_OPT_MAX_CYCLES 400
   SCF_MAX_CYCLES 400
   METHOD   B3LYP
   BASIS   6-31G**
   PDB_PRINT 2
   SCF_CONVERGENCE 6
   THRESH 14
   SCF_PRINT 1
$end
$molecule
0 3
F 0.201894 0.700227 2.155986
F 0.788676 -1.136302 -1.178548
C -0.373809 0.880136 -0.578279
C 0.727993 -0.050343 -0.357814
C -1.762477 0.660090 -0.070404
H -0.245359 1.593960 -1.396845
H 1.723848 0.282729 -0.065152
H 0.379839 -0.012806 1.573886
H -2.252966 -0.166269 -0.609988
H -1.756223 0.406442 0.992404
H -2.377718 1.552538 -0.213543
$end
$scan
stre 1 3 2.700000 2.701000 0.100000
$end
