
$comment
	potential surface scanner
$end

$rem
   JOBTYPE  PES_SCAN
   UNRESTRICTED TRUE
   SYM_IGNORE  TRUE
   GEOM_OPT_MAX_CYCLES 400
   SCF_MAX_CYCLES 400
   METHOD   B3LYP
   BASIS   6-31G**
   PDB_PRINT 2
   SCF_CONVERGENCE 6
   THRESH 14
   SCF_PRINT 1
$end
$molecule
0 3
F 0.166589 1.150578 1.395346
F 0.615798 -0.864491 -1.768312
C -0.266478 0.726907 -0.193035
C 0.648939 -0.373027 -0.490679
C -1.737838 0.424342 -0.094060
H -0.038954 1.670836 -0.698928
H 1.633235 -0.476397 -0.040161
H 0.399507 1.426474 2.360790
H -2.150362 0.132300 -1.070550
H -1.918943 -0.405324 0.597088
H -2.297794 1.298204 0.254198
$end
$scan
stre 1 3 1.600000 1.601000 0.100000
$end
