
$comment
	potential surface scanner
$end

$rem
   JOBTYPE  PES_SCAN
   UNRESTRICTED TRUE
   SYM_IGNORE  TRUE
   GEOM_OPT_MAX_CYCLES 400
   SCF_MAX_CYCLES 400
   METHOD   B3LYP
   BASIS   6-31G**
   PDB_PRINT 2
   SCF_CONVERGENCE 6
   THRESH 14
   SCF_PRINT 1
$end
$molecule
0 3
F -0.548802 -1.583162 0.369648
F 1.936004 0.127953 -0.296822
C -0.429043 0.152012 -0.395092
C 0.799877 0.659397 0.275368
C -1.749007 0.722111 -0.012530
H -0.292778 -0.143920 -1.432063
H 0.834722 1.756740 0.175192
H 0.760605 0.401875 1.338420
H -1.831914 0.834189 1.070839
H -1.874860 1.710231 -0.476458
H -2.551105 0.072973 -0.364801
$end
$scan
stre 1 3 4.000000 4.001000 0.100000
$end
