
$comment
	potential surface scanner
$end

$rem
   JOBTYPE  PES_SCAN
   UNRESTRICTED TRUE
   SYM_IGNORE  TRUE
   GEOM_OPT_MAX_CYCLES 400
   SCF_MAX_CYCLES 400
   METHOD   B3LYP
   BASIS   6-31G**
   PDB_PRINT 2
   SCF_CONVERGENCE 6
   THRESH 14
   SCF_PRINT 1
$end
$molecule
0 1
F -0.509769 -1.386989 0.206765
F 1.935323 0.057171 -0.203768
C -0.437391 0.009475 -0.336051
C 0.780847 0.646148 0.283492
C -1.742491 0.687481 0.010752
H -0.297332 -0.110295 -1.414067
H 0.804198 1.717729 0.043792
H 0.747359 0.523181 1.372121
H -1.854670 0.784993 1.094604
H -1.794129 1.685471 -0.437258
H -2.578246 0.096036 -0.368682
$end
$scan
stre 1 3 1.600000 1.601000 0.100000
$end
