
$comment
	potential surface scanner
$end

$rem
   JOBTYPE  PES_SCAN
   UNRESTRICTED TRUE
   SYM_IGNORE  TRUE
   GEOM_OPT_MAX_CYCLES 400
   SCF_MAX_CYCLES 400
   METHOD   B3LYP
   BASIS   6-31G**
   PDB_PRINT 2
   SCF_CONVERGENCE 6
   THRESH 14
   SCF_PRINT 1
$end
$molecule
0 3
F 0.334389 1.502299 1.596475
F 0.830332 -1.089639 -1.559901
C -0.327023 0.725400 -0.464826
C 0.692005 -0.307463 -0.445505
C -1.748299 0.488628 -0.054595
H -0.110231 1.662133 -0.982210
H 1.639687 -0.202535 0.080630
H 0.143956 0.661991 1.940123
H -2.380808 0.217232 -0.914278
H -1.832683 -0.335556 0.663536
H -2.187628 1.387911 0.392250
$end
$scan
stre 1 3 2.200000 2.201000 0.100000
$end
