
$comment
	potential surface scanner
$end

$rem
   JOBTYPE  PES_SCAN
   UNRESTRICTED TRUE
   SYM_IGNORE  TRUE
   GEOM_OPT_MAX_CYCLES 400
   SCF_MAX_CYCLES 400
   METHOD   B3LYP
   BASIS   6-31G**
   PDB_PRINT 2
   SCF_CONVERGENCE 6
   THRESH 14
   SCF_PRINT 1
$end
$molecule
0 3
F 0.066090 0.882799 1.220418
F 0.262106 -1.555699 -0.721165
C -0.261011 0.742813 -0.236774
C 0.631555 -0.266763 -0.818406
C -1.737915 0.421211 -0.312847
H -0.022436 1.723170 -0.659586
H 1.696859 -0.125438 -0.967895
H 0.733611 1.863602 3.740589
H -2.072177 0.389869 -1.354493
H -1.934362 -0.550700 0.143820
H -2.308621 1.185537 0.218038
$end
$scan
stre 1 3 1.400000 1.401000 0.100000
$end
