
$comment
	potential surface scanner
$end

$rem
   JOBTYPE  PES_SCAN
   UNRESTRICTED TRUE
   SYM_IGNORE  TRUE
   GEOM_OPT_MAX_CYCLES 400
   SCF_MAX_CYCLES 400
   METHOD   B3LYP
   BASIS   6-31G**
   PDB_PRINT 2
   SCF_CONVERGENCE 6
   THRESH 14
   SCF_PRINT 1
$end
$molecule
0 1
F -0.492469 -1.290829 0.135136
F 1.936534 0.030868 -0.163226
C -0.440444 -0.070064 -0.308741
C 0.770926 0.640137 0.283724
C -1.737740 0.670453 0.023923
H -0.303283 -0.085803 -1.403737
H 0.785028 1.694633 -0.016239
H 0.741628 0.576159 1.379206
H -1.865954 0.761228 1.107978
H -1.750231 1.672074 -0.415102
H -2.590295 0.111544 -0.371222
$end
$scan
stre 1 3 1.400000 1.401000 0.100000
$end
