
$comment
	potential surface scanner
$end

$rem
   JOBTYPE  PES_SCAN
   UNRESTRICTED TRUE
   SYM_IGNORE  TRUE
   GEOM_OPT_MAX_CYCLES 400
   SCF_MAX_CYCLES 400
   METHOD   B3LYP
   BASIS   6-31G**
   PDB_PRINT 2
   SCF_CONVERGENCE 6
   THRESH 14
   SCF_PRINT 1
$end
$molecule
0 1
F -0.501100 -1.338609 0.171403
F 1.935757 0.044020 -0.183794
C -0.439106 -0.029879 -0.321934
C 0.775717 0.643138 0.283386
C -1.739881 0.678918 0.017200
H -0.300311 -0.099328 -1.408585
H 0.794201 1.706456 0.012969
H 0.744525 0.550212 1.375843
H -1.860624 0.771370 1.101223
H -1.771247 1.679561 -0.424808
H -2.584231 0.104541 -0.371202
$end
$scan
stre 1 3 1.500000 1.501000 0.100000
$end
