
$comment
	potential surface scanner
$end

$rem
   JOBTYPE  PES_SCAN
   UNRESTRICTED TRUE
   SYM_IGNORE  TRUE
   GEOM_OPT_MAX_CYCLES 400
   SCF_MAX_CYCLES 400
   METHOD   B3LYP
   BASIS   6-31G**
   PDB_PRINT 2
   SCF_CONVERGENCE 6
   THRESH 14
   SCF_PRINT 1
$end
$molecule
0 3
F 0.048520 0.059990 2.467218
F 0.964202 -1.121808 -0.896918
C -0.434098 0.834423 -0.808043
C 0.759349 0.120265 -0.372744
C -1.740515 0.772761 -0.084310
H -0.403920 1.309920 -1.791179
H 1.708041 0.624258 -0.179079
H 0.419207 -0.128357 1.625366
H -2.353583 -0.069093 -0.447101
H -1.584878 0.626225 0.986809
H -2.328627 1.681815 -0.248317
$end
$scan
stre 1 3 3.300000 3.301000 0.100000
$end
