
$comment
	potential surface scanner
$end

$rem
   JOBTYPE  PES_SCAN
   UNRESTRICTED TRUE
   SYM_IGNORE  TRUE
   GEOM_OPT_MAX_CYCLES 400
   SCF_MAX_CYCLES 400
   METHOD   B3LYP
   BASIS   6-31G**
   PDB_PRINT 2
   SCF_CONVERGENCE 6
   THRESH 14
   SCF_PRINT 1
$end
$molecule
0 3
F 0.036419 -0.159872 2.713278
F 1.034506 -1.084323 -0.816579
C -0.466510 0.799273 -0.929126
C 0.768711 0.200102 -0.440750
C -1.727495 0.804177 -0.123752
H -0.498780 1.168954 -1.956092
H 1.689775 0.767577 -0.300211
H 0.425305 -0.184816 1.864589
H -2.429727 0.033522 -0.479610
H -1.523434 0.603904 0.931462
H -2.255074 1.761903 -0.211507
$end
$scan
stre 1 3 3.700000 3.701000 0.100000
$end
