
$comment
	potential surface scanner
$end

$rem
   JOBTYPE  PES_SCAN
   UNRESTRICTED TRUE
   SYM_IGNORE  TRUE
   GEOM_OPT_MAX_CYCLES 400
   SCF_MAX_CYCLES 400
   METHOD   B3LYP
   BASIS   6-31G**
   PDB_PRINT 2
   SCF_CONVERGENCE 6
   THRESH 14
   SCF_PRINT 1
$end
$molecule
0 3
F 0.240430 0.940415 2.013537
F 0.750366 -1.137663 -1.263211
C -0.358379 0.862204 -0.515359
C 0.715420 -0.113614 -0.365106
C -1.764673 0.613763 -0.071306
H -0.203090 1.648100 -1.259908
H 1.716661 0.162506 -0.035864
H 0.374937 0.097928 1.632557
H -2.261426 -0.121963 -0.723911
H -1.801392 0.225313 0.950011
H -2.355157 1.533412 -0.109737
$end
$scan
stre 1 3 2.500000 2.501000 0.100000
$end
