
$comment
	potential surface scanner
$end

$rem
   JOBTYPE  PES_SCAN
   UNRESTRICTED TRUE
   SYM_IGNORE  TRUE
   GEOM_OPT_MAX_CYCLES 400
   SCF_MAX_CYCLES 400
   METHOD   B3LYP
   BASIS   6-31G**
   PDB_PRINT 2
   SCF_CONVERGENCE 6
   THRESH 14
   SCF_PRINT 1
$end
$molecule
0 3
F 1.208050 -0.469418 2.695277
F 0.601632 -1.174315 -0.417342
C -0.459195 0.939781 -0.656506
C 0.597440 0.143953 0.045020
C -1.897839 0.848230 -0.286348
H -0.181101 1.350752 -1.624857
H 1.602351 0.555203 -0.099618
H 0.442282 0.082890 1.168182
H -2.355671 -0.067999 -0.694706
H -2.032157 0.807914 0.800640
H -2.472093 1.693409 -0.678041
$end
$scan
stre 1 3 3.900000 3.901000 0.100000
$end
