
$comment
	potential surface scanner
$end

$rem
   JOBTYPE  PES_SCAN
   UNRESTRICTED TRUE
   SYM_IGNORE  TRUE
   GEOM_OPT_MAX_CYCLES 400
   SCF_MAX_CYCLES 400
   METHOD   B3LYP
   BASIS   6-31G**
   PDB_PRINT 2
   SCF_CONVERGENCE 6
   THRESH 14
   SCF_PRINT 1
$end
$molecule
0 3
F 0.032247 -0.137437 2.638558
F 1.032075 -1.089555 -0.802491
C -0.462770 0.798243 -0.906786
C 0.768251 0.192053 -0.416374
C -1.730418 0.801021 -0.112422
H -0.485251 1.170561 -1.933153
H 1.691519 0.755653 -0.272998
H 0.427681 -0.168091 1.791982
H -2.427623 0.026941 -0.471863
H -1.532745 0.603498 0.943928
H -2.259269 1.757512 -0.206679
$end
$scan
stre 1 3 3.600000 3.601000 0.100000
$end
