
$comment
potential surface scanner
$end

$rem
JOBTYPE  PES_SCAN
UNRESTRICTED TRUE
SYM_IGNORE  TRUE
GEOM_OPT_MAX_CYCLES 400
SCF_MAX_CYCLES 400
METHOD   B3LYP
BASIS   6-31G**
PDB_PRINT 2
SCF_CONVERGENCE 6
THRESH 14
SCF_PRINT 1
$end
$molecule
0 1
F -0.548304 -1.584497 0.361218
F 1.936744 0.124126 -0.284912
C -0.427696 0.153766 -0.396342
C 0.798699 0.658445 0.280421
C -1.748644 0.723189 -0.015587
H -0.289072 -0.138564 -1.434088
H 0.837224 1.755491 0.179348
H 0.753180 0.401688 1.343356
H -1.827833 0.852090 1.066276
H -1.882789 1.702378 -0.495506
H -2.547809 0.062292 -0.352483
$end
$scan
stre 1 3 2.000000 2.001000 0.100000
$end
