
$comment
	potential surface scanner
$end

$rem
   JOBTYPE  PES_SCAN
   UNRESTRICTED TRUE
   SYM_IGNORE  TRUE
   GEOM_OPT_MAX_CYCLES 400
   SCF_MAX_CYCLES 400
   METHOD   B3LYP
   BASIS   6-31G**
   PDB_PRINT 2
   SCF_CONVERGENCE 6
   THRESH 14
   SCF_PRINT 1
$end
$molecule
0 3
F 0.188530 0.600560 2.211648
F 0.821236 -1.132366 -1.148014
C -0.384783 0.878206 -0.617527
C 0.730384 -0.025061 -0.359021
C -1.762276 0.680596 -0.072180
H -0.267498 1.561962 -1.462672
H 1.717002 0.333910 -0.064594
H 0.386440 -0.055622 1.570556
H -2.263315 -0.168938 -0.564378
H -1.730001 0.471883 0.999819
H -2.382020 1.565271 -0.241934
$end
$scan
stre 1 3 2.800000 2.801000 0.100000
$end
