
$comment
	potential surface scanner
$end

$rem
   JOBTYPE  PES_SCAN
   UNRESTRICTED TRUE
   SYM_IGNORE  TRUE
   GEOM_OPT_MAX_CYCLES 400
   SCF_MAX_CYCLES 400
   METHOD   B3LYP
   BASIS   6-31G**
   PDB_PRINT 2
   SCF_CONVERGENCE 6
   THRESH 14
   SCF_PRINT 1
$end
$molecule
0 3
F 0.224339 1.230336 1.554219
F 0.798321 -0.938255 -1.791365
C -0.319297 0.689883 -0.400870
C 0.647875 -0.381143 -0.547108
C -1.766222 0.424664 -0.119238
H -0.061746 1.680425 -0.782344
H 1.562867 -0.455184 0.036226
H 0.425947 1.403547 2.451955
H -2.323600 0.184212 -1.038680
H -1.885562 -0.427049 0.558418
H -2.249223 1.298967 0.330488
$end
$scan
stre 1 3 2.000000 2.001000 0.100000
$end
