
$comment
	potential surface scanner
$end

$rem
   JOBTYPE  PES_SCAN
   UNRESTRICTED TRUE
   SYM_IGNORE  TRUE
   GEOM_OPT_MAX_CYCLES 400
   SCF_MAX_CYCLES 400
   METHOD   B3LYP
   BASIS   6-31G**
   PDB_PRINT 2
   SCF_CONVERGENCE 6
   THRESH 14
   SCF_PRINT 1
$end
$molecule
0 1
F -0.519570 -1.435545 0.243486
F 1.935348 0.071706 -0.223982
C -0.435232 0.047622 -0.350738
C 0.785970 0.649240 0.283342
C -1.744818 0.696217 0.004222
H -0.294539 -0.119990 -1.419491
H 0.813735 1.728504 0.075885
H 0.749929 0.494910 1.367228
H -1.848449 0.799613 1.087843
H -1.817113 1.690823 -0.450443
H -2.571561 0.087303 -0.365652
$end
$scan
stre 1 3 1.700000 1.701000 0.100000
$end
