
$comment
	potential surface scanner
$end

$rem
   JOBTYPE  PES_SCAN
   UNRESTRICTED TRUE
   SYM_IGNORE  TRUE
   GEOM_OPT_MAX_CYCLES 400
   SCF_MAX_CYCLES 400
   METHOD   B3LYP
   BASIS   6-31G**
   PDB_PRINT 2
   SCF_CONVERGENCE 6
   THRESH 14
   SCF_PRINT 1
$end
$molecule
0 3
F 1.145243 -0.446920 2.623334
F 0.619784 -1.168294 -0.426332
C -0.458442 0.937397 -0.651092
C 0.604626 0.141807 0.045932
C -1.895875 0.849528 -0.276216
H -0.180612 1.334317 -1.625662
H 1.607718 0.562264 -0.084915
H 0.463274 0.060764 1.185384
H -2.353922 -0.071259 -0.674237
H -2.027398 0.820331 0.811298
H -2.470699 1.690466 -0.675792
$end
$scan
stre 1 3 3.800000 3.801000 0.100000
$end
