
$comment
	potential surface scanner
$end

$rem
   JOBTYPE  PES_SCAN
   UNRESTRICTED TRUE
   SYM_IGNORE  TRUE
   GEOM_OPT_MAX_CYCLES 400
   SCF_MAX_CYCLES 400
   METHOD   B3LYP
   BASIS   6-31G**
   PDB_PRINT 2
   SCF_CONVERGENCE 6
   THRESH 14
   SCF_PRINT 1
$end
$molecule
0 3
F 0.221397 0.814330 2.090510
F 0.765723 -1.135343 -1.221757
C -0.365749 0.874546 -0.544189
C 0.721988 -0.080461 -0.360677
C -1.764160 0.637964 -0.070729
H -0.223921 1.624099 -1.328021
H 1.721950 0.223855 -0.052180
H 0.380283 0.034404 1.597630
H -2.251887 -0.154544 -0.660846
H -1.781434 0.329757 0.977697
H -2.370493 1.541794 -0.175734
$end
$scan
stre 1 3 2.600000 2.601000 0.100000
$end
