
$comment
	potential surface scanner
$end

$rem
   JOBTYPE  PES_SCAN
   UNRESTRICTED TRUE
   SYM_IGNORE  TRUE
   GEOM_OPT_MAX_CYCLES 400
   SCF_MAX_CYCLES 400
   METHOD   B3LYP
   BASIS   6-31G**
   PDB_PRINT 2
   SCF_CONVERGENCE 6
   THRESH 14
   SCF_PRINT 1
$end
$molecule
0 3
F 0.057157 0.141420 2.418007
F 0.938956 -1.130554 -0.930000
C -0.423847 0.844370 -0.770174
C 0.758216 0.095576 -0.362316
C -1.745165 0.758133 -0.077172
H -0.379496 1.349454 -1.738268
H 1.716210 0.578331 -0.160405
H 0.421522 -0.104481 1.586843
H -2.338855 -0.086167 -0.465576
H -1.612715 0.601361 0.995357
H -2.338285 1.662956 -0.244593
$end
$scan
stre 1 3 3.200000 3.201000 0.100000
$end
