
$comment
	potential surface scanner
$end

$rem
   JOBTYPE  PES_SCAN
   UNRESTRICTED TRUE
   SYM_IGNORE  TRUE
   GEOM_OPT_MAX_CYCLES 400
   SCF_MAX_CYCLES 400
   METHOD   B3LYP
   BASIS   6-31G**
   PDB_PRINT 2
   SCF_CONVERGENCE 6
   THRESH 14
   SCF_PRINT 1
$end
$molecule
0 1
F -0.528246 -1.484666 0.280919
F 1.935359 0.086573 -0.243448
C -0.432970 0.084605 -0.365851
C 0.790645 0.652398 0.282753
C -1.746807 0.704979 -0.002152
H -0.292514 -0.127622 -1.424767
H 0.823202 1.738434 0.108326
H 0.751163 0.466128 1.360981
H -1.842062 0.815297 1.081105
H -1.839650 1.695493 -0.464114
H -2.564420 0.078784 -0.362052
$end
$scan
stre 1 3 1.800000 1.801000 0.100000
$end
