
$comment
	potential surface scanner
$end

$rem
   JOBTYPE  PES_SCAN
   UNRESTRICTED TRUE
   SYM_IGNORE  TRUE
   GEOM_OPT_MAX_CYCLES 400
   SCF_MAX_CYCLES 400
   METHOD   B3LYP
   BASIS   6-31G**
   PDB_PRINT 2
   SCF_CONVERGENCE 6
   THRESH 14
   SCF_PRINT 1
$end
$molecule
0 3
F 0.159933 0.492150 2.266439
F 0.851978 -1.134317 -1.100041
C -0.395237 0.873223 -0.657013
C 0.735093 0.002770 -0.357925
C -1.760081 0.701045 -0.073155
H -0.291678 1.520465 -1.531849
H 1.714346 0.393043 -0.077508
H 0.397260 -0.083547 1.563195
H -2.278559 -0.158158 -0.529596
H -1.700489 0.519212 1.002390
H -2.378867 1.584515 -0.253234
$end
$scan
stre 1 3 2.900000 2.901000 0.100000
$end
