
$comment
	potential surface scanner
$end

$rem
   JOBTYPE  PES_SCAN
   UNRESTRICTED TRUE
   SYM_IGNORE  TRUE
   GEOM_OPT_MAX_CYCLES 400
   SCF_MAX_CYCLES 400
   METHOD   B3LYP
   BASIS   6-31G**
   PDB_PRINT 2
   SCF_CONVERGENCE 6
   THRESH 14
   SCF_PRINT 1
$end
$molecule
0 3
F 0.191864 1.185027 1.475423
F 0.724912 -0.892415 -1.792685
C -0.291362 0.710296 -0.299718
C 0.649482 -0.373596 -0.524293
C -1.751903 0.427164 -0.102130
H -0.045400 1.685667 -0.727136
H 1.593855 -0.478697 0.005318
H 0.402082 1.400997 2.378566
H -2.241696 0.136621 -1.044448
H -1.899309 -0.398610 0.602449
H -2.278826 1.307948 0.280353
$end
$scan
stre 1 3 1.800000 1.801000 0.100000
$end
