
$comment
	potential surface scanner
$end

$rem
   JOBTYPE  PES_SCAN
   UNRESTRICTED TRUE
   SYM_IGNORE  TRUE
   GEOM_OPT_MAX_CYCLES 400
   SCF_MAX_CYCLES 400
   METHOD   B3LYP
   BASIS   6-31G**
   PDB_PRINT 2
   SCF_CONVERGENCE 6
   THRESH 14
   SCF_PRINT 1
$end
$molecule
0 3
F 0.119475 0.299515 2.370761
F 0.913701 -1.129543 -1.019752
C -0.415896 0.854385 -0.734959
C 0.743388 0.053332 -0.364429
C -1.753455 0.736302 -0.078726
H -0.341626 1.433080 -1.658891
H 1.704462 0.499356 -0.103167
H 0.404216 -0.124802 1.582352
H -2.314210 -0.125574 -0.476970
H -1.643394 0.588324 0.998068
H -2.362962 1.626024 -0.262584
$end
$scan
stre 1 3 3.100000 3.101000 0.100000
$end
