
$comment
	potential surface scanner
$end

$rem
   JOBTYPE  PES_SCAN
   UNRESTRICTED TRUE
   SYM_IGNORE  TRUE
   GEOM_OPT_MAX_CYCLES 400
   SCF_MAX_CYCLES 400
   METHOD   B3LYP
   BASIS   6-31G**
   PDB_PRINT 2
   SCF_CONVERGENCE 6
   THRESH 14
   SCF_PRINT 1
$end
$molecule
0 3
F 0.207819 1.221278 1.508177
F 0.767098 -0.919834 -1.789703
C -0.305384 0.698314 -0.352772
C 0.649708 -0.379129 -0.534117
C -1.759086 0.425183 -0.109442
H -0.053465 1.681262 -0.757660
H 1.577459 -0.469351 0.026529
H 0.409489 1.402118 2.409932
H -2.289591 0.177725 -1.042451
H -1.891070 -0.424840 0.568309
H -2.259278 1.297677 0.324897
$end
$scan
stre 1 3 1.900000 1.901000 0.100000
$end
