
$comment
	potential surface scanner
$end

$rem
   JOBTYPE  PES_SCAN
   UNRESTRICTED TRUE
   SYM_IGNORE  TRUE
   GEOM_OPT_MAX_CYCLES 400
   SCF_MAX_CYCLES 400
   METHOD   B3LYP
   BASIS   6-31G**
   PDB_PRINT 2
   SCF_CONVERGENCE 6
   THRESH 14
   SCF_PRINT 1
$end
$molecule
0 3
F 0.031513 -0.042939 2.514792
F 0.998412 -1.112943 -0.833905
C -0.446636 0.813031 -0.845073
C 0.766237 0.152023 -0.380749
C -1.738062 0.784464 -0.091757
H -0.440178 1.234943 -1.852775
H 1.703735 0.687255 -0.218991
H 0.433990 -0.114537 1.670470
H -2.397282 -0.015569 -0.466638
H -1.568525 0.600986 0.971533
H -2.289507 1.723685 -0.215205
$end
$scan
stre 1 3 3.400000 3.401000 0.100000
$end
