
$comment
	potential surface scanner
$end

$rem
   JOBTYPE  PES_SCAN
   UNRESTRICTED TRUE
   SYM_IGNORE  TRUE
   GEOM_OPT_MAX_CYCLES 400
   SCF_MAX_CYCLES 400
   METHOD   B3LYP
   BASIS   6-31G**
   PDB_PRINT 2
   SCF_CONVERGENCE 6
   THRESH 14
   SCF_PRINT 1
$end
$molecule
0 3
F 0.039394 -0.099627 2.572382
F 1.020625 -1.100376 -0.807945
C -0.457010 0.801440 -0.877497
C 0.766363 0.174301 -0.394555
C -1.736792 0.794715 -0.103089
H -0.464495 1.194738 -1.896502
H 1.694200 0.728056 -0.241077
H 0.436954 -0.144020 1.725341
H -2.419165 0.011176 -0.470479
H -1.554886 0.604088 0.957294
H -2.271490 1.745908 -0.212171
$end
$scan
stre 1 3 3.500000 3.501000 0.100000
$end
