
$comment
	potential surface scanner
$end

$rem
   JOBTYPE  PES_SCAN
   UNRESTRICTED TRUE
   SYM_IGNORE  TRUE
   GEOM_OPT_MAX_CYCLES 400
   SCF_MAX_CYCLES 400
   METHOD   B3LYP
   BASIS   6-31G**
   PDB_PRINT 2
   SCF_CONVERGENCE 6
   THRESH 14
   SCF_PRINT 1
$end
$molecule
0 3
F 0.282182 1.350136 1.743214
F 0.808392 -1.160421 -1.387417
C -0.341639 0.766010 -0.499473
C 0.711852 -0.230315 -0.392315
C -1.753044 0.533110 -0.058254
H -0.159770 1.638459 -1.131753
H 1.684892 -0.019172 0.048427
H 0.227677 0.423425 1.778595
H -2.381195 0.187654 -0.893977
H -1.819464 -0.233289 0.721543
H -2.206186 1.454805 0.323111
$end
$scan
stre 1 3 2.300000 2.301000 0.100000
$end
