
$comment
	potential surface scanner
$end

$rem
   JOBTYPE  PES_SCAN
   UNRESTRICTED TRUE
   SYM_IGNORE  TRUE
   GEOM_OPT_MAX_CYCLES 400
   SCF_MAX_CYCLES 400
   METHOD   B3LYP
   BASIS   6-31G**
   PDB_PRINT 2
   SCF_CONVERGENCE 6
   THRESH 14
   SCF_PRINT 1
$end
$molecule
0 3
S 3.649613 0.012380 1.122153
C -0.579783 -0.003121 -0.414716
C -1.121060 -1.300779 0.086863
C -1.111236 1.297616 0.089494
H -0.030393 -0.004207 -1.353999
H -2.125789 -1.511474 -0.320929
H -0.484196 -2.147194 -0.189371
H -1.230500 -1.296909 1.179147
H -2.115301 1.515707 -0.316067
H -0.469123 2.139991 -0.186874
H -1.218822 1.293105 1.181986
H 2.366486 0.005686 0.684718
$end
$scan
stre 1 2 4.400000 4.401000 0.100000
$end
