
$comment
	potential surface scanner
$end

$rem
   JOBTYPE  PES_SCAN
   UNRESTRICTED TRUE
   SYM_IGNORE  TRUE
   GEOM_OPT_MAX_CYCLES 400
   SCF_MAX_CYCLES 400
   METHOD   B3LYP
   BASIS   6-31G**
   PDB_PRINT 2
   SCF_CONVERGENCE 6
   THRESH 14
   SCF_PRINT 1
$end
$molecule
0 3
S 4.438078 -0.000448 0.063345
C -0.660258 0.000352 -0.066916
C -1.380050 -1.298131 0.083296
C -1.380294 1.298731 0.082987
H 0.325888 0.000381 -0.523076
H -2.068748 -1.490616 -0.758765
H -0.690959 -2.147189 0.130142
H -2.000785 -1.314448 0.990001
H -2.068676 1.491115 -0.759356
H -0.691341 2.147889 0.130098
H -2.001388 1.314968 0.989444
H 3.708432 -0.001801 1.201203
$end
$scan
stre 1 2 5.000000 5.001000 0.100000
$end
