
$comment
	potential surface scanner
$end

$rem
   JOBTYPE  PES_SCAN
   UNRESTRICTED TRUE
   SYM_IGNORE  TRUE
   GEOM_OPT_MAX_CYCLES 400
   SCF_MAX_CYCLES 400
   METHOD   B3LYP
   BASIS   6-31G**
   PDB_PRINT 2
   SCF_CONVERGENCE 6
   THRESH 14
   SCF_PRINT 1
$end
$molecule
0 3
S 2.898925 0.001415 1.005202
C -0.422787 -0.000514 -0.382683
C -0.960754 -1.298373 0.126224
C -0.957276 1.298608 0.126701
H 0.045508 -0.000907 -1.366182
H -1.967784 -1.501356 -0.278371
H -0.328160 -2.145639 -0.155958
H -1.062550 -1.292586 1.218273
H -1.963520 1.504716 -0.278253
H -0.322073 2.144175 -0.154727
H -1.059650 1.292497 1.218702
H 1.630019 -0.001235 0.483480
$end
$scan
stre 1 2 3.500000 3.501000 0.100000
$end
