
$comment
	potential surface scanner
$end

$rem
   JOBTYPE  PES_SCAN
   UNRESTRICTED TRUE
   SYM_IGNORE  TRUE
   GEOM_OPT_MAX_CYCLES 400
   SCF_MAX_CYCLES 400
   METHOD   B3LYP
   BASIS   6-31G**
   PDB_PRINT 2
   SCF_CONVERGENCE 6
   THRESH 14
   SCF_PRINT 1
$end
$molecule
0 3
S 1.476790 -0.123977 1.299569
C -0.043535 0.031926 -0.282931
C -0.642927 -1.300618 0.216535
C -0.738061 1.310177 0.222183
H -0.351838 0.008302 -1.366900
H -1.660017 -1.392737 -0.182602
H -0.065356 -2.158293 -0.137669
H -0.721842 -1.358140 1.307398
H -1.728525 1.405255 -0.237543
H -0.163065 2.200768 -0.048371
H -0.857599 1.307479 1.307124
H 1.025873 0.070659 -0.534382
$end
$scan
stre 1 2 2.100000 2.101000 0.100000
$end
