
$comment
	potential surface scanner
$end

$rem
   JOBTYPE  PES_SCAN
   UNRESTRICTED TRUE
   SYM_IGNORE  TRUE
   GEOM_OPT_MAX_CYCLES 400
   SCF_MAX_CYCLES 400
   METHOD   B3LYP
   BASIS   6-31G**
   PDB_PRINT 2
   SCF_CONVERGENCE 6
   THRESH 14
   SCF_PRINT 1
$end
$molecule
0 1
S 1.911349 -0.000274 0.129857
C -0.226865 0.000055 -0.387871
C -0.833581 -1.282375 0.132149
C -0.833200 1.282646 0.132198
H -0.111512 0.000058 -1.472274
H -1.881920 -1.341943 -0.194955
H -0.308161 -2.161718 -0.244518
H -0.829248 -1.315357 1.226061
H -1.881515 1.342542 -0.194916
H -0.307511 2.161848 -0.244425
H -0.828869 1.315576 1.226112
H 1.660931 -0.000257 1.454985
$end
$scan
stre 1 2 2.300000 2.301000 0.100000
$end
