
$comment
	potential surface scanner
$end

$rem
   JOBTYPE  PES_SCAN
   UNRESTRICTED TRUE
   SYM_IGNORE  TRUE
   GEOM_OPT_MAX_CYCLES 400
   SCF_MAX_CYCLES 400
   METHOD   B3LYP
   BASIS   6-31G**
   PDB_PRINT 2
   SCF_CONVERGENCE 6
   THRESH 14
   SCF_PRINT 1
$end
$molecule
0 3
S 2.293401 -0.000322 0.213037
C -0.429508 0.000090 -0.439473
C -0.907849 -1.293528 0.118255
C -0.907481 1.293829 0.118295
H -0.141144 0.000069 -1.486617
H -1.947937 -1.451215 -0.218812
H -0.311153 -2.134504 -0.236398
H -0.920969 -1.290498 1.211216
H -1.947512 1.451839 -0.218794
H -0.310525 2.134640 -0.236311
H -0.920630 1.290762 1.211255
H 1.981204 -0.000357 1.526750
$end
$scan
stre 1 2 5.400000 5.401000 0.100000
$end
