
$comment
	potential surface scanner
$end

$rem
   JOBTYPE  PES_SCAN
   UNRESTRICTED TRUE
   SYM_IGNORE  TRUE
   GEOM_OPT_MAX_CYCLES 400
   SCF_MAX_CYCLES 400
   METHOD   B3LYP
   BASIS   6-31G**
   PDB_PRINT 2
   SCF_CONVERGENCE 6
   THRESH 14
   SCF_PRINT 1
$end
$molecule
0 3
S 3.737303 0.013203 1.131800
C -0.594680 -0.003328 -0.415341
C -1.139830 -1.300495 0.083316
C -1.129563 1.297049 0.086130
H -0.034516 -0.004569 -1.348018
H -2.142920 -1.510298 -0.328948
H -0.502999 -2.147803 -0.190571
H -1.254006 -1.296706 1.175148
H -2.131966 1.514603 -0.323791
H -0.487231 2.140157 -0.187845
H -1.241674 1.292599 1.178198
H 2.451980 0.006390 0.702326
$end
$scan
stre 1 2 4.500000 4.501000 0.100000
$end
