
$comment
	potential surface scanner
$end

$rem
   JOBTYPE  PES_SCAN
   UNRESTRICTED TRUE
   SYM_IGNORE  TRUE
   GEOM_OPT_MAX_CYCLES 400
   SCF_MAX_CYCLES 400
   METHOD   B3LYP
   BASIS   6-31G**
   PDB_PRINT 2
   SCF_CONVERGENCE 6
   THRESH 14
   SCF_PRINT 1
$end
$molecule
0 1
S 1.788320 -0.000253 0.094667
C -0.158180 0.000040 -0.364830
C -0.815353 -1.277164 0.136446
C -0.814968 1.277424 0.136496
H -0.100022 0.000053 -1.456863
H -1.861147 -1.310752 -0.196275
H -0.305333 -2.165969 -0.240964
H -0.815378 -1.320586 1.230793
H -1.860748 1.311352 -0.196240
H -0.304670 2.166092 -0.240862
H -0.814996 1.320791 1.230846
H 1.592374 -0.000229 1.429188
$end
$scan
stre 1 2 2.100000 2.101000 0.100000
$end
