
$comment
	potential surface scanner
$end

$rem
   JOBTYPE  PES_SCAN
   UNRESTRICTED TRUE
   SYM_IGNORE  TRUE
   GEOM_OPT_MAX_CYCLES 400
   SCF_MAX_CYCLES 400
   METHOD   B3LYP
   BASIS   6-31G**
   PDB_PRINT 2
   SCF_CONVERGENCE 6
   THRESH 14
   SCF_PRINT 1
$end
$molecule
0 3
S 2.740116 0.001144 0.975951
C -0.382437 -0.000494 -0.369284
C -0.926742 -1.298150 0.136214
C -0.923366 1.298425 0.136651
H 0.061588 -0.000800 -1.364600
H -1.931273 -1.495325 -0.276187
H -0.294426 -2.146219 -0.143635
H -1.034299 -1.292762 1.227387
H -1.927121 1.498656 -0.276141
H -0.288468 2.144809 -0.142464
H -1.031605 1.292730 1.227773
H 1.467930 -0.001214 0.430743
$end
$scan
stre 1 2 3.300000 3.301000 0.100000
$end
