
$comment
	potential surface scanner
$end

$rem
   JOBTYPE  PES_SCAN
   UNRESTRICTED TRUE
   SYM_IGNORE  TRUE
   GEOM_OPT_MAX_CYCLES 400
   SCF_MAX_CYCLES 400
   METHOD   B3LYP
   BASIS   6-31G**
   PDB_PRINT 2
   SCF_CONVERGENCE 6
   THRESH 14
   SCF_PRINT 1
$end
$molecule
0 3
S 1.708940 -0.221476 1.497819
C -0.092201 0.038581 -0.359132
C -0.681777 -1.271802 0.166779
C -0.774394 1.297676 0.179152
H -0.217269 0.030450 -1.456436
H -1.732390 -1.343929 -0.137574
H -0.154933 -2.143122 -0.232468
H -0.666681 -1.333105 1.261309
H -1.831861 1.303028 -0.108834
H -0.315502 2.203785 -0.229033
H -0.719413 1.354278 1.269211
H 1.007378 0.086437 -0.288381
$end
$scan
stre 1 2 2.500000 2.501000 0.100000
$end
