
$comment
	potential surface scanner
$end

$rem
   JOBTYPE  PES_SCAN
   UNRESTRICTED TRUE
   SYM_IGNORE  TRUE
   GEOM_OPT_MAX_CYCLES 400
   SCF_MAX_CYCLES 400
   METHOD   B3LYP
   BASIS   6-31G**
   PDB_PRINT 2
   SCF_CONVERGENCE 6
   THRESH 14
   SCF_PRINT 1
$end
$molecule
0 1
S 1.727671 -0.000245 0.077695
C -0.123085 0.000035 -0.352073
C -0.807293 -1.274149 0.138195
C -0.806910 1.274407 0.138244
H -0.091738 0.000052 -1.447057
H -1.851847 -1.293815 -0.196708
H -0.305839 -2.167559 -0.240847
H -0.808976 -1.323370 1.232715
H -1.851452 1.294414 -0.196676
H -0.305175 2.167682 -0.240743
H -0.808597 1.323572 1.232767
H 1.563141 -0.000224 1.416889
$end
$scan
stre 1 2 2.000000 2.001000 0.100000
$end
