
$comment
	potential surface scanner
$end

$rem
   JOBTYPE  PES_SCAN
   UNRESTRICTED TRUE
   SYM_IGNORE  TRUE
   GEOM_OPT_MAX_CYCLES 400
   SCF_MAX_CYCLES 400
   METHOD   B3LYP
   BASIS   6-31G**
   PDB_PRINT 2
   SCF_CONVERGENCE 6
   THRESH 14
   SCF_PRINT 1
$end
$molecule
0 3
S 2.587928 -0.008769 0.999993
C -0.133999 0.000740 -0.261364
C -0.841127 -1.281646 0.165940
C -0.841010 1.283505 0.164909
H 0.048623 0.000093 -1.343615
H -1.834525 -1.346610 -0.294733
H -0.276100 -2.170496 -0.129809
H -0.979552 -1.314801 1.252118
H -1.834425 1.348221 -0.295798
H -0.275956 2.172127 -0.131504
H -0.979126 1.317578 1.251062
H 0.889164 0.000859 0.185211
$end
$scan
stre 1 2 2.900000 2.901000 0.100000
$end
