
$comment
	potential surface scanner
$end

$rem
   JOBTYPE  PES_SCAN
   UNRESTRICTED TRUE
   SYM_IGNORE  TRUE
   GEOM_OPT_MAX_CYCLES 400
   SCF_MAX_CYCLES 400
   METHOD   B3LYP
   BASIS   6-31G**
   PDB_PRINT 2
   SCF_CONVERGENCE 6
   THRESH 14
   SCF_PRINT 1
$end
$molecule
0 1
S 1.667806 -0.000236 0.061182
C -0.087254 0.000032 -0.338523
C -0.799958 -1.270843 0.139649
C -0.799579 1.271101 0.139697
H -0.081334 0.000052 -1.435967
H -1.843329 -1.275460 -0.196804
H -0.307879 -2.168876 -0.241799
H -0.802813 -1.326094 1.234315
H -1.842943 1.276056 -0.196777
H -0.307216 2.169001 -0.241697
H -0.802439 1.326296 1.234366
H 1.536837 -0.000229 1.404758
$end
$scan
stre 1 2 1.900000 1.901000 0.100000
$end
