
$comment
	potential surface scanner
$end

$rem
   JOBTYPE  PES_SCAN
   UNRESTRICTED TRUE
   SYM_IGNORE  TRUE
   GEOM_OPT_MAX_CYCLES 400
   SCF_MAX_CYCLES 400
   METHOD   B3LYP
   BASIS   6-31G**
   PDB_PRINT 2
   SCF_CONVERGENCE 6
   THRESH 14
   SCF_PRINT 1
$end
$molecule
0 3
S 2.546318 0.006681 1.027145
C -0.332625 -0.001100 -0.369862
C -0.885135 -1.295952 0.141434
C -0.880420 1.295627 0.141634
H 0.050984 -0.001473 -1.390563
H -1.903370 -1.468160 -0.245393
H -0.277348 -2.152257 -0.166867
H -0.957265 -1.297123 1.234949
H -1.896267 1.473534 -0.248795
H -0.267238 2.149364 -0.163203
H -0.956933 1.295356 1.234872
H 1.289198 -0.003697 0.367058
$end
$scan
stre 1 2 3.100000 3.101000 0.100000
$end
