
$comment
	potential surface scanner
$end

$rem
   JOBTYPE  PES_SCAN
   UNRESTRICTED TRUE
   SYM_IGNORE  TRUE
   GEOM_OPT_MAX_CYCLES 400
   SCF_MAX_CYCLES 400
   METHOD   B3LYP
   BASIS   6-31G**
   PDB_PRINT 2
   SCF_CONVERGENCE 6
   THRESH 14
   SCF_PRINT 1
$end
$molecule
0 1
S 1.849604 -0.000262 0.112148
C -0.192680 0.000047 -0.376806
C -0.824083 -1.279884 0.134422
C -0.823699 1.280149 0.134472
H -0.106460 0.000055 -1.465333
H -1.871191 -1.326622 -0.195561
H -0.306274 -2.164075 -0.242282
H -0.821970 -1.317862 1.228564
H -1.870788 1.327222 -0.195524
H -0.305617 2.164201 -0.242184
H -0.821589 1.318073 1.228615
H 1.624645 -0.000242 1.441871
$end
$scan
stre 1 2 2.200000 2.201000 0.100000
$end
