
$comment
	potential surface scanner
$end

$rem
   JOBTYPE  PES_SCAN
   UNRESTRICTED TRUE
   SYM_IGNORE  TRUE
   GEOM_OPT_MAX_CYCLES 400
   SCF_MAX_CYCLES 400
   METHOD   B3LYP
   BASIS   6-31G**
   PDB_PRINT 2
   SCF_CONVERGENCE 6
   THRESH 14
   SCF_PRINT 1
$end
$molecule
0 1
S 2.097668 -0.000319 0.177538
C -0.330888 0.000072 -0.415853
C -0.867957 -1.289105 0.124744
C -0.867569 1.289386 0.124798
H -0.124319 0.000063 -1.483594
H -1.916132 -1.393341 -0.200761
H -0.311641 -2.150173 -0.247670
H -0.864587 -1.306402 1.218054
H -1.915709 1.393947 -0.200712
H -0.310990 2.150300 -0.247575
H -0.864206 1.306632 1.218109
H 1.806226 -0.000254 1.495324
$end
$scan
stre 1 2 2.600000 2.601000 0.100000
$end
