
$comment
	potential surface scanner
$end

$rem
   JOBTYPE  PES_SCAN
   UNRESTRICTED TRUE
   SYM_IGNORE  TRUE
   GEOM_OPT_MAX_CYCLES 400
   SCF_MAX_CYCLES 400
   METHOD   B3LYP
   BASIS   6-31G**
   PDB_PRINT 2
   SCF_CONVERGENCE 6
   THRESH 14
   SCF_PRINT 1
$end
$molecule
0 1
S 2.161126 -0.000326 0.192560
C -0.364438 0.000076 -0.425117
C -0.880453 -1.290892 0.122127
C -0.880065 1.291175 0.122180
H -0.130225 0.000064 -1.486477
H -1.927448 -1.412393 -0.203787
H -0.312031 -2.145153 -0.247168
H -0.878846 -1.301757 1.215287
H -1.927020 1.413005 -0.203740
H -0.311379 2.145279 -0.247072
H -0.878469 1.301991 1.215341
H 1.859145 -0.000264 1.508267
$end
$scan
stre 1 2 2.700000 2.701000 0.100000
$end
