
$comment
	potential surface scanner
$end

$rem
   JOBTYPE  PES_SCAN
   UNRESTRICTED TRUE
   SYM_IGNORE  TRUE
   GEOM_OPT_MAX_CYCLES 400
   SCF_MAX_CYCLES 400
   METHOD   B3LYP
   BASIS   6-31G**
   PDB_PRINT 2
   SCF_CONVERGENCE 6
   THRESH 14
   SCF_PRINT 1
$end
$molecule
0 3
S 4.350530 -0.000534 0.079795
C -0.646589 0.000323 -0.089892
C -1.360791 -1.298308 0.083592
C -1.360988 1.298878 0.083333
H 0.326648 0.000345 -0.574372
H -2.074016 -1.492746 -0.737348
H -0.670021 -2.146850 0.111258
H -1.954429 -1.313525 1.008296
H -2.073933 1.493247 -0.737867
H -0.670315 2.147493 0.111243
H -1.954953 1.314033 1.007825
H 3.618756 -0.001555 1.216540
$end
$scan
stre 1 2 4.900000 4.901000 0.100000
$end
