
$comment
	potential surface scanner
$end

$rem
   JOBTYPE  PES_SCAN
   UNRESTRICTED TRUE
   SYM_IGNORE  TRUE
   GEOM_OPT_MAX_CYCLES 400
   SCF_MAX_CYCLES 400
   METHOD   B3LYP
   BASIS   6-31G**
   PDB_PRINT 2
   SCF_CONVERGENCE 6
   THRESH 14
   SCF_PRINT 1
$end
$molecule
0 3
S 3.218260 0.007189 1.069612
C -0.499061 -0.001794 -0.407357
C -1.028898 -1.299892 0.106600
C -1.022189 1.298426 0.108148
H 0.002079 -0.002514 -1.373729
H -2.038916 -1.511449 -0.287140
H -0.395091 -2.145517 -0.178474
H -1.121996 -1.293366 1.199910
H -2.031616 1.515132 -0.284320
H -0.384609 2.141211 -0.176890
H -1.114244 1.291488 1.201558
H 1.946176 0.001886 0.584489
$end
$scan
stre 1 2 3.900000 3.901000 0.100000
$end
