
$comment
	potential surface scanner
$end

$rem
   JOBTYPE  PES_SCAN
   UNRESTRICTED TRUE
   SYM_IGNORE  TRUE
   GEOM_OPT_MAX_CYCLES 400
   SCF_MAX_CYCLES 400
   METHOD   B3LYP
   BASIS   6-31G**
   PDB_PRINT 2
   SCF_CONVERGENCE 6
   THRESH 14
   SCF_PRINT 1
$end
$molecule
0 3
C 0.421529 0.956494 -0.637391
H -0.016305 1.509481 -1.468027
C 0.752610 1.851858 0.546459
H -0.196310 2.235366 0.945851
H 1.208806 1.254510 1.342653
C 1.663119 3.027605 0.168592
H 1.860328 3.658076 1.040687
H 2.625160 2.678522 -0.218210
H 1.198926 3.654567 -0.599676
Se -0.631324 -0.680111 -0.261277
H -1.755412 -2.419225 0.087913
Se 1.853413 -0.234636 -1.295691
H -2.152347 -3.043605 0.221614
$end
$scan
stre 10 11 2.000000 2.001000 0.100000
$end
