
$comment
	potential surface scanner
$end

$rem
   JOBTYPE  PES_SCAN
   UNRESTRICTED TRUE
   SYM_IGNORE  TRUE
   GEOM_OPT_MAX_CYCLES 400
   SCF_MAX_CYCLES 400
   METHOD   B3LYP
   BASIS   6-31G**
   PDB_PRINT 2
   SCF_CONVERGENCE 6
   THRESH 14
   SCF_PRINT 1
$end
$molecule
0 1
C 0.160331 0.676292 -0.662823
H 0.386722 0.978320 -1.754932
C 0.346666 1.818595 0.344605
H -0.478518 2.523123 0.206368
H 0.218542 1.378170 1.340679
C 1.685091 2.557257 0.264695
H 1.719856 3.345006 1.023514
H 2.527691 1.882143 0.431292
H 1.817689 3.032115 -0.714015
Se -1.631341 0.367938 -1.258009
H -0.390847 -1.868116 0.827953
Se 1.531409 -0.640409 -0.784212
H -1.061086 -1.601529 0.608389
$end
$scan
stre 10 11 3.400000 3.401000 0.100000
$end
