
$comment
	potential surface scanner
$end

$rem
   JOBTYPE  PES_SCAN
   UNRESTRICTED TRUE
   SYM_IGNORE  TRUE
   GEOM_OPT_MAX_CYCLES 400
   SCF_MAX_CYCLES 400
   METHOD   B3LYP
   BASIS   6-31G**
   PDB_PRINT 2
   SCF_CONVERGENCE 6
   THRESH 14
   SCF_PRINT 1
$end
$molecule
0 3
C 0.559632 1.016958 -1.103684
H 0.150493 1.764524 -1.783230
C 0.666588 1.530960 0.322979
H -0.353886 1.717142 0.684432
H 1.088395 0.749834 0.964011
C 1.495676 2.817108 0.431251
H 1.508490 3.177603 1.464066
H 2.531256 2.650416 0.119320
H 1.078866 3.612510 -0.196069
Se -0.353300 -0.714888 -1.357256
H -1.664272 -1.881285 0.824687
Se 2.169461 0.186712 -1.889863
H -2.045204 -2.178692 1.392857
$end
$scan
stre 10 11 2.700000 2.701000 0.100000
$end
