
$comment
	potential surface scanner
$end

$rem
   JOBTYPE  PES_SCAN
   UNRESTRICTED TRUE
   SYM_IGNORE  TRUE
   GEOM_OPT_MAX_CYCLES 400
   SCF_MAX_CYCLES 400
   METHOD   B3LYP
   BASIS   6-31G**
   PDB_PRINT 2
   SCF_CONVERGENCE 6
   THRESH 14
   SCF_PRINT 1
$end
$molecule
0 3
C 0.140352 0.965359 -0.775003
H 0.245279 1.491399 -1.726791
C 0.436109 1.882559 0.408033
H -0.388837 2.605852 0.457657
H 0.385133 1.302831 1.336340
C 1.766196 2.637101 0.309624
H 1.878293 3.319518 1.157736
H 2.619835 1.953310 0.311669
H 1.817541 3.235213 -0.606813
Se -1.571286 0.016094 -0.724162
H -3.082793 -3.314356 0.307076
Se 1.379013 -0.591391 -0.986609
H 1.207363 -1.054590 0.404742
$end
$scan
stre 10 11 3.700000 3.701000 0.100000
$end
