
$comment
	potential surface scanner
$end

$rem
   JOBTYPE  PES_SCAN
   UNRESTRICTED TRUE
   SYM_IGNORE  TRUE
   GEOM_OPT_MAX_CYCLES 400
   SCF_MAX_CYCLES 400
   METHOD   B3LYP
   BASIS   6-31G**
   PDB_PRINT 2
   SCF_CONVERGENCE 6
   THRESH 14
   SCF_PRINT 1
$end
$molecule
0 1
C 0.053317 0.628432 -0.327536
H 0.103858 0.760205 -1.409801
C 0.418022 1.948428 0.388311
H -0.400078 2.665499 0.236029
H 0.485292 1.768048 1.466214
C 1.718357 2.574323 -0.130627
H 1.919149 3.511476 0.397690
H 2.567427 1.903543 0.024328
H 1.648237 2.800971 -1.199886
Se -1.819357 0.237792 0.146133
H -2.007808 -2.360534 -1.127912
Se 1.329690 -0.858483 0.027087
H 0.816097 -1.130794 1.383475
$end
$scan
stre 10 11 3.000000 3.001000 0.100000
$end
