
$comment
	potential surface scanner
$end

$rem
   JOBTYPE  PES_SCAN
   UNRESTRICTED TRUE
   SYM_IGNORE  TRUE
   GEOM_OPT_MAX_CYCLES 400
   SCF_MAX_CYCLES 400
   METHOD   B3LYP
   BASIS   6-31G**
   PDB_PRINT 2
   SCF_CONVERGENCE 6
   THRESH 14
   SCF_PRINT 1
$end
$molecule
0 1
C 0.071651 0.525879 -0.369259
H 0.127669 0.655103 -1.451751
C 0.365053 1.855844 0.341126
H -0.476136 2.534512 0.143762
H 0.388066 1.692448 1.424753
C 1.661148 2.529207 -0.119728
H 1.794371 3.486979 0.392872
H 2.531344 1.903049 0.093868
H 1.640810 2.728515 -1.197000
Se -1.803560 0.020325 0.069910
H -1.803723 -1.424904 -0.825251
Se 1.401072 -0.911291 -0.004978
H 0.934435 -1.146765 1.375176
$end
$scan
stre 10 11 1.800000 1.801000 0.100000
$end
