
$comment
	potential surface scanner
$end

$rem
   JOBTYPE  PES_SCAN
   UNRESTRICTED TRUE
   SYM_IGNORE  TRUE
   GEOM_OPT_MAX_CYCLES 400
   SCF_MAX_CYCLES 400
   METHOD   B3LYP
   BASIS   6-31G**
   PDB_PRINT 2
   SCF_CONVERGENCE 6
   THRESH 14
   SCF_PRINT 1
$end
$molecule
0 3
C 0.038326 1.021500 -0.720325
H 0.181713 1.484909 -1.698921
C 0.435219 1.966434 0.409206
H -0.311715 2.771325 0.419984
H 0.333221 1.447341 1.368725
C 1.835367 2.572536 0.264597
H 2.024959 3.286478 1.071866
H 2.613003 1.804053 0.303519
H 1.940767 3.108028 -0.685302
Se -1.751975 0.239101 -0.606642
H -2.610453 -3.618293 0.012655
Se 1.119590 -0.658336 -0.850308
H 0.984175 -0.976179 0.584446
$end
$scan
stre 10 11 3.900000 3.901000 0.100000
$end
