
$comment
	potential surface scanner
$end

$rem
   JOBTYPE  PES_SCAN
   UNRESTRICTED TRUE
   SYM_IGNORE  TRUE
   GEOM_OPT_MAX_CYCLES 400
   SCF_MAX_CYCLES 400
   METHOD   B3LYP
   BASIS   6-31G**
   PDB_PRINT 2
   SCF_CONVERGENCE 6
   THRESH 14
   SCF_PRINT 1
$end
$molecule
0 3
C 0.034145 1.035465 -0.724232
H 0.184544 1.498471 -1.701959
C 0.436650 1.975755 0.407213
H -0.302426 2.787880 0.415844
H 0.326236 1.457235 1.366115
C 1.843078 2.568242 0.267658
H 2.036868 3.280073 1.075801
H 2.612993 1.792184 0.309081
H 1.957070 3.102916 -0.681711
Se -1.763965 0.270001 -0.616280
H -2.591735 -3.693630 0.027479
Se 1.099783 -0.654428 -0.852933
H 0.958957 -0.971266 0.581423
$end
$scan
stre 10 11 4.000000 4.001000 0.100000
$end
