
$comment
	potential surface scanner
$end

$rem
   JOBTYPE  PES_SCAN
   UNRESTRICTED TRUE
   SYM_IGNORE  TRUE
   GEOM_OPT_MAX_CYCLES 400
   SCF_MAX_CYCLES 400
   METHOD   B3LYP
   BASIS   6-31G**
   PDB_PRINT 2
   SCF_CONVERGENCE 6
   THRESH 14
   SCF_PRINT 1
$end
$molecule
0 1
C 0.065878 0.553342 -0.364051
H 0.126693 0.683593 -1.446000
C 0.378099 1.878011 0.352520
H -0.457490 2.568698 0.172171
H 0.415157 1.705996 1.434076
C 1.674623 2.541177 -0.123317
H 1.831709 3.487782 0.403006
H 2.538714 1.898160 0.063826
H 1.636010 2.758784 -1.196370
Se -1.816539 0.091863 0.074046
H -1.822156 -1.669661 -0.873055
Se 1.372945 -0.901605 0.002146
H 0.888555 -1.147240 1.374505
$end
$scan
stre 10 11 2.100000 2.101000 0.100000
$end
