
$comment
	potential surface scanner
$end

$rem
   JOBTYPE  PES_SCAN
   UNRESTRICTED TRUE
   SYM_IGNORE  TRUE
   GEOM_OPT_MAX_CYCLES 400
   SCF_MAX_CYCLES 400
   METHOD   B3LYP
   BASIS   6-31G**
   PDB_PRINT 2
   SCF_CONVERGENCE 6
   THRESH 14
   SCF_PRINT 1
$end
$molecule
0 3
C 0.143599 0.974171 -0.777987
H 0.251257 1.500534 -1.729300
C 0.439275 1.889906 0.406113
H -0.383801 2.615436 0.454192
H 0.384529 1.309866 1.334019
C 1.771983 2.640305 0.311511
H 1.883796 3.322286 1.160011
H 2.623250 1.953564 0.316191
H 1.828160 3.238243 -0.604749
Se -1.569389 0.027433 -0.730406
H -3.127298 -3.389402 0.322283
Se 1.380082 -0.584446 -0.989523
H 1.206755 -1.048997 0.401144
$end
$scan
stre 10 11 3.800000 3.801000 0.100000
$end
