
$comment
	potential surface scanner
$end

$rem
   JOBTYPE  PES_SCAN
   UNRESTRICTED TRUE
   SYM_IGNORE  TRUE
   GEOM_OPT_MAX_CYCLES 400
   SCF_MAX_CYCLES 400
   METHOD   B3LYP
   BASIS   6-31G**
   PDB_PRINT 2
   SCF_CONVERGENCE 6
   THRESH 14
   SCF_PRINT 1
$end
$molecule
0 1
C 0.063791 0.569385 -0.359348
H 0.123077 0.699485 -1.441314
C 0.386311 1.892980 0.358745
H -0.445293 2.590090 0.184949
H 0.429333 1.717775 1.439384
C 1.684225 2.549173 -0.124039
H 1.850709 3.492280 0.405661
H 2.544697 1.899092 0.055131
H 1.639491 2.771609 -1.195753
Se -1.817889 0.132099 0.088025
H -1.857471 -1.825079 -0.915910
Se 1.362945 -0.892430 0.005544
H 0.868272 -1.147557 1.372429
$end
$scan
stre 10 11 2.300000 2.301000 0.100000
$end
