
$comment
	potential surface scanner
$end

$rem
   JOBTYPE  PES_SCAN
   UNRESTRICTED TRUE
   SYM_IGNORE  TRUE
   GEOM_OPT_MAX_CYCLES 400
   SCF_MAX_CYCLES 400
   METHOD   B3LYP
   BASIS   6-31G**
   PDB_PRINT 2
   SCF_CONVERGENCE 6
   THRESH 14
   SCF_PRINT 1
$end
$molecule
0 1
C 0.068464 0.537174 -0.367261
H 0.126257 0.665966 -1.449663
C 0.369482 1.864698 0.345240
H -0.469401 2.548431 0.154971
H 0.398456 1.697676 1.428061
C 1.666043 2.533564 -0.121524
H 1.809161 3.486992 0.396440
H 2.533667 1.900387 0.081778
H 1.638601 2.739931 -1.197253
Se -1.809985 0.044307 0.069689
H -1.799734 -1.510764 -0.836758
Se 1.389910 -0.907078 -0.002277
H 0.911277 -1.152384 1.372059
$end
$scan
stre 10 11 1.900000 1.901000 0.100000
$end
