
$comment
	potential surface scanner
$end

$rem
   JOBTYPE  PES_SCAN
   UNRESTRICTED TRUE
   SYM_IGNORE  TRUE
   GEOM_OPT_MAX_CYCLES 400
   SCF_MAX_CYCLES 400
   METHOD   B3LYP
   BASIS   6-31G**
   PDB_PRINT 2
   SCF_CONVERGENCE 6
   THRESH 14
   SCF_PRINT 1
$end
$molecule
0 3
C 0.517574 0.974202 -1.027070
H 0.093009 1.697250 -1.723558
C 0.668866 1.543646 0.374445
H -0.339864 1.746710 0.759081
H 1.109363 0.787163 1.032144
C 1.503918 2.829918 0.403248
H 1.562224 3.226834 1.421080
H 2.524849 2.648835 0.052987
H 1.062287 3.604200 -0.233518
Se -0.417588 -0.760030 -1.182516
H -1.583754 -1.791257 0.644127
Se 2.097611 0.099834 -1.823999
H -1.966301 -2.158401 1.177045
$end
$scan
stre 10 11 2.300000 2.301000 0.100000
$end
