
$comment
	potential surface scanner
$end

$rem
   JOBTYPE  PES_SCAN
   UNRESTRICTED TRUE
   SYM_IGNORE  TRUE
   GEOM_OPT_MAX_CYCLES 400
   SCF_MAX_CYCLES 400
   METHOD   B3LYP
   BASIS   6-31G**
   PDB_PRINT 2
   SCF_CONVERGENCE 6
   THRESH 14
   SCF_PRINT 1
$end
$molecule
0 1
C 0.057425 0.591862 -0.338425
H 0.109726 0.720185 -1.420908
C 0.399168 1.916774 0.373717
H -0.426924 2.622097 0.208675
H 0.456155 1.743831 1.453796
C 1.697101 2.557631 -0.131198
H 1.880570 3.500379 0.393417
H 2.552897 1.898686 0.037526
H 1.638030 2.777160 -1.202730
Se -1.819640 0.176670 0.125160
H -1.908297 -2.036988 -1.033226
Se 1.349293 -0.878131 0.022631
H 0.846698 -1.141250 1.385069
$end
$scan
stre 10 11 2.600000 2.601000 0.100000
$end
