
$comment
	potential surface scanner
$end

$rem
   JOBTYPE  PES_SCAN
   UNRESTRICTED TRUE
   SYM_IGNORE  TRUE
   GEOM_OPT_MAX_CYCLES 400
   SCF_MAX_CYCLES 400
   METHOD   B3LYP
   BASIS   6-31G**
   PDB_PRINT 2
   SCF_CONVERGENCE 6
   THRESH 14
   SCF_PRINT 1
$end
$molecule
0 3
C 0.276790 0.878187 -1.099523
H 0.573545 1.556486 -1.902990
C 0.190140 1.601674 0.241231
H -0.680138 2.268800 0.183245
H -0.039467 0.875311 1.028741
C 1.434821 2.421754 0.598322
H 1.281400 2.952574 1.542876
H 2.319119 1.787634 0.709085
H 1.653197 3.169629 -0.171859
Se -1.305026 -0.138221 -1.644758
H -1.713292 -1.088025 1.594253
Se 1.653134 -0.566284 -1.208772
H 1.187976 -1.270619 0.003651
$end
$scan
stre 10 11 3.300000 3.301000 0.100000
$end
