
$comment
	potential surface scanner
$end

$rem
   JOBTYPE  PES_SCAN
   UNRESTRICTED TRUE
   SYM_IGNORE  TRUE
   GEOM_OPT_MAX_CYCLES 400
   SCF_MAX_CYCLES 400
   METHOD   B3LYP
   BASIS   6-31G**
   PDB_PRINT 2
   SCF_CONVERGENCE 6
   THRESH 14
   SCF_PRINT 1
$end
$molecule
0 1
C 0.066588 0.548329 -0.370145
H 0.129852 0.679377 -1.451961
C 0.374130 1.872001 0.348035
H -0.462853 2.560377 0.165328
H 0.407083 1.698930 1.429628
C 1.670952 2.538385 -0.121485
H 1.823839 3.485174 0.405794
H 2.535968 1.897591 0.069139
H 1.637027 2.756530 -1.194644
Se -1.816843 0.074049 0.060614
H -1.798838 -1.603502 -0.831293
Se 1.375748 -0.905194 -0.003402
H 0.889544 -1.153146 1.367894
$end
$scan
stre 10 11 2.000000 2.001000 0.100000
$end
