
$comment
	potential surface scanner
$end

$rem
   JOBTYPE  PES_SCAN
   UNRESTRICTED TRUE
   SYM_IGNORE  TRUE
   GEOM_OPT_MAX_CYCLES 400
   SCF_MAX_CYCLES 400
   METHOD   B3LYP
   BASIS   6-31G**
   PDB_PRINT 2
   SCF_CONVERGENCE 6
   THRESH 14
   SCF_PRINT 1
$end
$molecule
0 3
C 0.448260 0.886121 -0.630726
H -0.020681 1.424186 -1.454423
C 0.761530 1.787923 0.551573
H -0.196447 2.119313 0.975134
H 1.264125 1.208190 1.333002
C 1.603353 3.011079 0.165341
H 1.781016 3.647654 1.037455
H 2.575565 2.712484 -0.238189
H 1.095571 3.616266 -0.593405
Se -0.551034 -0.802925 -0.243840
H -1.707500 -2.145812 0.071185
Se 1.913112 -0.245671 -1.307286
H -2.134676 -2.769904 0.207677
$end
$scan
stre 10 11 1.700000 1.701000 0.100000
$end
