
$comment
	potential surface scanner
$end

$rem
   JOBTYPE  PES_SCAN
   UNRESTRICTED TRUE
   SYM_IGNORE  TRUE
   GEOM_OPT_MAX_CYCLES 400
   SCF_MAX_CYCLES 400
   METHOD   B3LYP
   BASIS   6-31G**
   PDB_PRINT 2
   SCF_CONVERGENCE 6
   THRESH 14
   SCF_PRINT 1
$end
$molecule
0 3
C 0.228958 0.866519 -1.041660
H 0.541129 1.500369 -1.874952
C 0.167399 1.649892 0.265586
H -0.671789 2.351847 0.170664
H -0.097705 0.968989 1.080997
C 1.445824 2.428737 0.594187
H 1.304992 3.018946 1.504780
H 2.296372 1.760334 0.755688
H 1.711662 3.120264 -0.212924
Se -1.380466 -0.126719 -1.548491
H -1.310899 -1.181159 1.152124
Se 1.550801 -0.629161 -1.099769
H 1.045918 -1.279955 0.127272
$end
$scan
stre 10 11 2.800000 2.801000 0.100000
$end
