
$comment
	potential surface scanner
$end

$rem
   JOBTYPE  PES_SCAN
   UNRESTRICTED TRUE
   SYM_IGNORE  TRUE
   GEOM_OPT_MAX_CYCLES 400
   SCF_MAX_CYCLES 400
   METHOD   B3LYP
   BASIS   6-31G**
   PDB_PRINT 2
   SCF_CONVERGENCE 6
   THRESH 14
   SCF_PRINT 1
$end
$molecule
0 3
C 0.030056 1.049503 -0.728374
H 0.187386 1.512179 -1.705154
C 0.438051 1.984936 0.405156
H -0.293015 2.804287 0.411676
H 0.319066 1.466991 1.363348
C 1.850643 2.563700 0.270876
H 2.048499 3.273286 1.080008
H 2.612751 1.780148 0.314770
H 1.973333 3.097584 -0.677860
Se -1.775699 0.301083 -0.626228
H -2.572051 -3.768032 0.043191
Se 1.079875 -0.650345 -0.855884
H 0.933304 -0.966422 0.577974
$end
$scan
stre 10 11 4.100000 4.101000 0.100000
$end
