
$comment
	potential surface scanner
$end

$rem
   JOBTYPE  PES_SCAN
   UNRESTRICTED TRUE
   SYM_IGNORE  TRUE
   GEOM_OPT_MAX_CYCLES 400
   SCF_MAX_CYCLES 400
   METHOD   B3LYP
   BASIS   6-31G**
   PDB_PRINT 2
   SCF_CONVERGENCE 6
   THRESH 14
   SCF_PRINT 1
$end
$molecule
0 3
C 0.271317 0.873181 -1.089147
H 0.560222 1.549915 -1.896642
C 0.192078 1.600343 0.250069
H -0.680196 2.265135 0.196207
H -0.029568 0.875627 1.041172
C 1.437407 2.424612 0.595297
H 1.290008 2.957930 1.539439
H 2.323896 1.792840 0.701047
H 1.647975 3.170965 -0.178539
Se -1.310835 -0.149739 -1.621235
H -1.709337 -1.072606 1.521934
Se 1.649855 -0.569423 -1.201263
H 1.189376 -1.269880 0.015162
$end
$scan
stre 10 11 3.200000 3.201000 0.100000
$end
