
$comment
	potential surface scanner
$end

$rem
   JOBTYPE  PES_SCAN
   UNRESTRICTED TRUE
   SYM_IGNORE  TRUE
   GEOM_OPT_MAX_CYCLES 400
   SCF_MAX_CYCLES 400
   METHOD   B3LYP
   BASIS   6-31G**
   PDB_PRINT 2
   SCF_CONVERGENCE 6
   THRESH 14
   SCF_PRINT 1
$end
$molecule
0 3
C 0.420945 1.003947 -0.765552
H 0.030035 1.610063 -1.582805
C 0.704784 1.821240 0.484732
H -0.256579 2.205728 0.851886
H 1.099415 1.164547 1.267341
C 1.666941 2.989916 0.237977
H 1.815448 3.562764 1.158409
H 2.645536 2.634425 -0.098545
H 1.276869 3.674998 -0.522489
Se -0.671703 -0.628138 -0.515616
H -1.675671 -2.405557 0.304647
Se 1.865342 -0.176045 -1.416986
H -2.089169 -3.008985 0.470496
$end
$scan
stre 10 11 2.100000 2.101000 0.100000
$end
