
$comment
	potential surface scanner
$end

$rem
   JOBTYPE  PES_SCAN
   UNRESTRICTED TRUE
   SYM_IGNORE  TRUE
   GEOM_OPT_MAX_CYCLES 400
   SCF_MAX_CYCLES 400
   METHOD   B3LYP
   BASIS   6-31G**
   PDB_PRINT 2
   SCF_CONVERGENCE 6
   THRESH 14
   SCF_PRINT 1
$end
$molecule
0 3
C 0.552924 1.008332 -1.065701
H 0.136052 1.742014 -1.755580
C 0.685475 1.554545 0.346852
H -0.328840 1.744854 0.723225
H 1.122751 0.789286 0.996480
C 1.511746 2.845419 0.408983
H 1.558468 3.221281 1.435390
H 2.536934 2.678489 0.064278
H 1.070287 3.629832 -0.215301
Se -0.372708 -0.724458 -1.262717
H -1.700775 -1.911614 0.766297
Se 2.145260 0.150814 -1.858149
H -2.085379 -2.279891 1.289442
$end
$scan
stre 10 11 2.600000 2.601000 0.100000
$end
