
$comment
	potential surface scanner
$end

$rem
   JOBTYPE  PES_SCAN
   UNRESTRICTED TRUE
   SYM_IGNORE  TRUE
   GEOM_OPT_MAX_CYCLES 400
   SCF_MAX_CYCLES 400
   METHOD   B3LYP
   BASIS   6-31G**
   PDB_PRINT 2
   SCF_CONVERGENCE 6
   THRESH 14
   SCF_PRINT 1
$end
$molecule
0 3
C 0.235895 0.877544 -1.065829
H 0.555139 1.518259 -1.891237
C 0.163135 1.650995 0.247033
H -0.669784 2.359595 0.145923
H -0.119119 0.965783 1.053462
C 1.441396 2.418458 0.601605
H 1.291212 3.000790 1.515811
H 2.285550 1.743385 0.768441
H 1.723207 3.116114 -0.194766
Se -1.371073 -0.110870 -1.589524
H -1.328548 -1.202818 1.311483
Se 1.563723 -0.613189 -1.125236
H 1.061464 -1.275145 0.096334
$end
$scan
stre 10 11 3.000000 3.001000 0.100000
$end
