
$comment
	potential surface scanner
$end

$rem
   JOBTYPE  PES_SCAN
   UNRESTRICTED TRUE
   SYM_IGNORE  TRUE
   GEOM_OPT_MAX_CYCLES 400
   SCF_MAX_CYCLES 400
   METHOD   B3LYP
   BASIS   6-31G**
   PDB_PRINT 2
   SCF_CONVERGENCE 6
   THRESH 14
   SCF_PRINT 1
$end
$molecule
0 3
C 0.439382 0.912012 -0.641421
H -0.009735 1.461487 -1.468698
C 0.755679 1.805727 0.546615
H -0.200541 2.151780 0.962325
H 1.242392 1.215940 1.330481
C 1.621409 3.015086 0.170167
H 1.802442 3.646406 1.045361
H 2.591878 2.700545 -0.225443
H 1.130622 3.630513 -0.591429
Se -0.582787 -0.755898 -0.270180
H -1.716338 -2.237785 0.089083
Se 1.896233 -0.242499 -1.305365
H -2.138443 -2.854411 0.232001
$end
$scan
stre 10 11 1.800000 1.801000 0.100000
$end
