
$comment
	potential surface scanner
$end

$rem
   JOBTYPE  PES_SCAN
   UNRESTRICTED TRUE
   SYM_IGNORE  TRUE
   GEOM_OPT_MAX_CYCLES 400
   SCF_MAX_CYCLES 400
   METHOD   B3LYP
   BASIS   6-31G**
   PDB_PRINT 2
   SCF_CONVERGENCE 6
   THRESH 14
   SCF_PRINT 1
$end
$molecule
0 3
C 0.233532 0.871604 -1.051982
H 0.557993 1.507616 -1.879025
C 0.166292 1.649084 0.258667
H -0.673066 2.350646 0.162668
H -0.102583 0.965180 1.071171
C 1.442963 2.427093 0.596136
H 1.297957 3.014881 1.507640
H 2.292848 1.758275 0.759761
H 1.712321 3.120728 -0.207956
Se -1.380090 -0.106957 -1.574147
H -1.307663 -1.198440 1.219313
Se 1.547119 -0.631007 -1.109079
H 1.044574 -1.279802 0.120334
$end
$scan
stre 10 11 2.900000 2.901000 0.100000
$end
