
$comment
	potential surface scanner
$end

$rem
   JOBTYPE  PES_SCAN
   UNRESTRICTED TRUE
   SYM_IGNORE  TRUE
   GEOM_OPT_MAX_CYCLES 400
   SCF_MAX_CYCLES 400
   METHOD   B3LYP
   BASIS   6-31G**
   PDB_PRINT 2
   SCF_CONVERGENCE 6
   THRESH 14
   SCF_PRINT 1
$end
$molecule
0 1
C 0.313460 1.090623 -1.053979
H -1.171339 -0.228422 -2.573436
C 0.397933 2.063828 0.106680
H 0.078536 3.041303 -0.285308
H -0.358009 1.790114 0.855011
C 1.767557 2.201896 0.772423
H 1.711235 2.936112 1.582193
H 2.095955 1.248288 1.194383
H 2.523505 2.529059 0.056085
Se -1.498367 0.555881 -1.373413
H -0.013027 -1.730951 1.414806
Se 1.696857 0.530832 -2.036577
H -0.712087 -1.579655 1.214635
$end
$scan
stre 10 11 4.000000 4.001000 0.100000
$end
