
$comment
	potential surface scanner
$end

$rem
   JOBTYPE  PES_SCAN
   UNRESTRICTED TRUE
   SYM_IGNORE  TRUE
   GEOM_OPT_MAX_CYCLES 400
   SCF_MAX_CYCLES 400
   METHOD   B3LYP
   BASIS   6-31G**
   PDB_PRINT 2
   SCF_CONVERGENCE 6
   THRESH 14
   SCF_PRINT 1
$end
$molecule
0 1
C 0.313987 1.114360 -1.086410
H -1.165210 -0.165831 -2.643627
C 0.394702 2.063373 0.094285
H 0.071819 3.047856 -0.276780
H -0.360753 1.770796 0.835974
C 1.763100 2.192489 0.764431
H 1.702427 2.908782 1.589806
H 2.095151 1.231485 1.166376
H 2.518580 2.538604 0.056535
Se -1.498867 0.595174 -1.430324
H -0.009460 -1.792438 1.551450
Se 1.701190 0.564394 -2.069166
H -0.694456 -1.620137 1.320953
$end
$scan
stre 10 11 4.200000 4.201000 0.100000
$end
