
$comment
	potential surface scanner
$end

$rem
   JOBTYPE  PES_SCAN
   UNRESTRICTED TRUE
   SYM_IGNORE  TRUE
   GEOM_OPT_MAX_CYCLES 400
   SCF_MAX_CYCLES 400
   METHOD   B3LYP
   BASIS   6-31G**
   PDB_PRINT 2
   SCF_CONVERGENCE 6
   THRESH 14
   SCF_PRINT 1
$end
$molecule
0 1
C 0.134438 0.678685 -0.694489
H 0.387058 1.003232 -1.761355
C 0.323346 1.810402 0.326895
H -0.482035 2.534357 0.170313
H 0.159505 1.371457 1.318188
C 1.679205 2.518577 0.281591
H 1.716082 3.300143 1.046805
H 2.502569 1.823293 0.462444
H 1.845734 2.996943 -0.690280
Se -1.678145 0.320987 -1.207801
H -0.272337 -1.741188 0.794981
Se 1.479052 -0.682811 -0.762773
H -0.962267 -1.485172 0.588985
$end
$scan
stre 10 11 3.300000 3.301000 0.100000
$end
