
$comment
	potential surface scanner
$end

$rem
   JOBTYPE  PES_SCAN
   UNRESTRICTED TRUE
   SYM_IGNORE  TRUE
   GEOM_OPT_MAX_CYCLES 400
   SCF_MAX_CYCLES 400
   METHOD   B3LYP
   BASIS   6-31G**
   PDB_PRINT 2
   SCF_CONVERGENCE 6
   THRESH 14
   SCF_PRINT 1
$end
$molecule
0 1
C 0.053697 0.639274 -0.326882
H 0.105476 0.772924 -1.408903
C 0.423346 1.956196 0.391790
H -0.393041 2.676021 0.243148
H 0.492087 1.772539 1.468961
C 1.724425 2.579489 -0.128878
H 1.929457 3.514240 0.402046
H 2.571926 1.905747 0.021482
H 1.651995 2.809859 -1.197175
Se -1.818284 0.247827 0.144370
H -2.046141 -2.450280 -1.147257
Se 1.323929 -0.853966 0.026075
H 0.813332 -1.120964 1.384727
$end
$scan
stre 10 11 3.100000 3.101000 0.100000
$end
