
$comment
	potential surface scanner
$end

$rem
   JOBTYPE  PES_SCAN
   UNRESTRICTED TRUE
   SYM_IGNORE  TRUE
   GEOM_OPT_MAX_CYCLES 400
   SCF_MAX_CYCLES 400
   METHOD   B3LYP
   BASIS   6-31G**
   PDB_PRINT 2
   SCF_CONVERGENCE 6
   THRESH 14
   SCF_PRINT 1
$end
$molecule
0 3
C 0.137038 0.956688 -0.772016
H 0.239371 1.482252 -1.724348
C 0.432779 1.875426 0.409869
H -0.394150 2.596339 0.461013
H 0.385690 1.296117 1.338639
C 1.760357 2.633888 0.307793
H 1.872803 3.316667 1.155568
H 2.616037 1.952655 0.307432
H 1.807302 3.232141 -0.608785
Se -1.572947 0.004294 -0.717852
H -3.038740 -3.239339 0.292247
Se 1.378144 -0.597960 -0.983955
H 1.208514 -1.060269 0.407896
$end
$scan
stre 10 11 3.600000 3.601000 0.100000
$end
