
$comment
	potential surface scanner
$end

$rem
   JOBTYPE  PES_SCAN
   UNRESTRICTED TRUE
   SYM_IGNORE  TRUE
   GEOM_OPT_MAX_CYCLES 400
   SCF_MAX_CYCLES 400
   METHOD   B3LYP
   BASIS   6-31G**
   PDB_PRINT 2
   SCF_CONVERGENCE 6
   THRESH 14
   SCF_PRINT 1
$end
$molecule
0 1
C 0.055779 0.599894 -0.333469
H 0.106392 0.728463 -1.416017
C 0.403614 1.924591 0.377910
H -0.420541 2.632678 0.215540
H 0.463967 1.751350 1.457667
C 1.701872 2.560954 -0.132312
H 1.890032 3.503157 0.391615
H 2.556075 1.899211 0.033420
H 1.639274 2.780515 -1.203610
Se -1.819816 0.192075 0.134887
H -1.928972 -2.111868 -1.065084
Se 1.344653 -0.873403 0.025887
H 0.839872 -1.138712 1.387070
$end
$scan
stre 10 11 2.700000 2.701000 0.100000
$end
