
$comment
	potential surface scanner
$end

$rem
   JOBTYPE  PES_SCAN
   UNRESTRICTED TRUE
   SYM_IGNORE  TRUE
   GEOM_OPT_MAX_CYCLES 400
   SCF_MAX_CYCLES 400
   METHOD   B3LYP
   BASIS   6-31G**
   PDB_PRINT 2
   SCF_CONVERGENCE 6
   THRESH 14
   SCF_PRINT 1
$end
$molecule
0 3
C 0.540696 0.996840 -1.053021
H 0.121690 1.727444 -1.744898
C 0.679260 1.550268 0.356129
H -0.333325 1.744834 0.735007
H 1.117160 0.787680 1.008473
C 1.508790 2.839477 0.407363
H 1.559043 3.222692 1.430873
H 2.532691 2.667482 0.061268
H 1.067830 3.620505 -0.221539
Se -0.387397 -0.736680 -1.238005
H -1.660041 -1.869450 0.725973
Se 2.129472 0.134374 -1.847021
H -2.043674 -2.236562 1.252896
$end
$scan
stre 10 11 2.500000 2.501000 0.100000
$end
