
$comment
	potential surface scanner
$end

$rem
   JOBTYPE  PES_SCAN
   UNRESTRICTED TRUE
   SYM_IGNORE  TRUE
   GEOM_OPT_MAX_CYCLES 400
   SCF_MAX_CYCLES 400
   METHOD   B3LYP
   BASIS   6-31G**
   PDB_PRINT 2
   SCF_CONVERGENCE 6
   THRESH 14
   SCF_PRINT 1
$end
$molecule
0 3
C 0.450432 0.922755 -0.645332
H 0.000149 1.473109 -1.471322
C 0.763392 1.814729 0.544991
H -0.193753 2.158818 0.960231
H 1.250195 1.224356 1.328279
C 1.627259 3.026163 0.171056
H 1.806218 3.656281 1.047511
H 2.598619 2.714160 -0.224270
H 1.135747 3.641948 -0.589784
Se -0.568303 -0.741779 -0.277442
H -1.763443 -2.300573 0.099123
Se 1.910178 -0.229032 -1.310563
H -2.184497 -2.912033 0.241019
$end
$scan
stre 10 11 1.900000 1.901000 0.100000
$end
