
$comment
	potential surface scanner
$end

$rem
   JOBTYPE  PES_SCAN
   UNRESTRICTED TRUE
   SYM_IGNORE  TRUE
   GEOM_OPT_MAX_CYCLES 400
   SCF_MAX_CYCLES 400
   METHOD   B3LYP
   BASIS   6-31G**
   PDB_PRINT 2
   SCF_CONVERGENCE 6
   THRESH 14
   SCF_PRINT 1
$end
$molecule
0 3
C 0.130796 0.939227 -0.766053
H 0.227660 1.463835 -1.719489
C 0.426137 1.861102 0.413528
H -0.405022 2.576888 0.467830
H 0.387089 1.282559 1.343150
C 1.748406 2.627782 0.304265
H 1.861308 3.311209 1.151457
H 2.608265 1.951858 0.299147
H 1.786521 3.226337 -0.612513
Se -1.575035 -0.020924 -0.705244
H -2.953731 -3.088639 0.263427
Se 1.377550 -0.610560 -0.979318
H 1.212255 -1.071777 0.413316
$end
$scan
stre 10 11 3.400000 3.401000 0.100000
$end
