
$comment
	potential surface scanner
$end

$rem
   JOBTYPE  PES_SCAN
   UNRESTRICTED TRUE
   SYM_IGNORE  TRUE
   GEOM_OPT_MAX_CYCLES 400
   SCF_MAX_CYCLES 400
   METHOD   B3LYP
   BASIS   6-31G**
   PDB_PRINT 2
   SCF_CONVERGENCE 6
   THRESH 14
   SCF_PRINT 1
$end
$molecule
0 1
C 0.061901 0.650592 -0.331727
H 0.120544 0.785953 -1.413259
C 0.429518 1.961908 0.393333
H -0.387959 2.681385 0.247113
H 0.495790 1.773440 1.469855
C 1.730983 2.589117 -0.122142
H 1.935572 3.520440 0.414935
H 2.579057 1.915287 0.024110
H 1.659374 2.826439 -1.188974
Se -1.809099 0.242065 0.128626
H -2.140642 -2.556116 -1.163760
Se 1.323187 -0.851221 0.021770
H 0.833979 -1.090383 1.393623
$end
$scan
stre 10 11 3.200000 3.201000 0.100000
$end
