
$comment
	potential surface scanner
$end

$rem
   JOBTYPE  PES_SCAN
   UNRESTRICTED TRUE
   SYM_IGNORE  TRUE
   GEOM_OPT_MAX_CYCLES 400
   SCF_MAX_CYCLES 400
   METHOD   B3LYP
   BASIS   6-31G**
   PDB_PRINT 2
   SCF_CONVERGENCE 6
   THRESH 14
   SCF_PRINT 1
$end
$molecule
0 3
C 0.133824 0.947992 -0.769021
H 0.233493 1.473059 -1.721912
C 0.429443 1.868301 0.411697
H -0.399548 2.586723 0.464399
H 0.386327 1.289397 1.340911
C 1.754436 2.630773 0.306001
H 1.867169 3.313886 1.153469
H 2.612164 1.952130 0.303266
H 1.797001 3.229166 -0.610694
Se -1.574220 -0.008030 -0.711523
H -2.995642 -3.164146 0.277664
Se 1.377623 -0.604347 -0.981516
H 1.210129 -1.066007 0.410761
$end
$scan
stre 10 11 3.500000 3.501000 0.100000
$end
