
$comment
	potential surface scanner
$end

$rem
   JOBTYPE  PES_SCAN
   UNRESTRICTED TRUE
   SYM_IGNORE  TRUE
   GEOM_OPT_MAX_CYCLES 400
   SCF_MAX_CYCLES 400
   METHOD   B3LYP
   BASIS   6-31G**
   PDB_PRINT 2
   SCF_CONVERGENCE 6
   THRESH 14
   SCF_PRINT 1
$end
$molecule
0 1
C 0.058803 0.583964 -0.343186
H 0.113268 0.712995 -1.425486
C 0.394706 1.909116 0.369986
H -0.433173 2.611772 0.202127
H 0.448512 1.736444 1.450331
C 1.692268 2.554050 -0.130274
H 1.871378 3.497424 0.394704
H 2.549547 1.897744 0.041239
H 1.636264 2.773302 -1.202064
Se -1.819278 0.161080 0.115077
H -1.886466 -1.962349 -1.001406
Se 1.353663 -0.882680 0.019510
H 0.852709 -1.143957 1.382946
$end
$scan
stre 10 11 2.500000 2.501000 0.100000
$end
