
$comment
	potential surface scanner
$end

$rem
   JOBTYPE  PES_SCAN
   UNRESTRICTED TRUE
   SYM_IGNORE  TRUE
   GEOM_OPT_MAX_CYCLES 400
   SCF_MAX_CYCLES 400
   METHOD   B3LYP
   BASIS   6-31G**
   PDB_PRINT 2
   SCF_CONVERGENCE 6
   THRESH 14
   SCF_PRINT 1
$end
$molecule
0 1
C 0.310279 1.095391 -1.062559
H -1.171803 -0.190862 -2.610667
C 0.395068 2.060674 0.103806
H 0.072180 3.039869 -0.281320
H -0.360714 1.782170 0.850921
C 1.764244 2.198198 0.769792
H 1.707234 2.931440 1.580222
H 2.094033 1.244128 1.189748
H 2.520128 2.526219 0.053590
Se -1.505340 0.586318 -1.407650
H 0.002324 -1.752656 1.465701
Se 1.696461 0.521144 -2.032750
H -0.691886 -1.593126 1.254668
$end
$scan
stre 10 11 4.100000 4.101000 0.100000
$end
