
$comment
	potential surface scanner
$end

$rem
   JOBTYPE  PES_SCAN
   UNRESTRICTED TRUE
   SYM_IGNORE  TRUE
   GEOM_OPT_MAX_CYCLES 400
   SCF_MAX_CYCLES 400
   METHOD   B3LYP
   BASIS   6-31G**
   PDB_PRINT 2
   SCF_CONVERGENCE 6
   THRESH 14
   SCF_PRINT 1
$end
$molecule
0 3
C 0.013711 1.106107 -0.737761
H 0.190383 1.557517 -1.716473
C 0.443657 2.020751 0.401167
H -0.259985 2.863678 0.400475
H 0.297420 1.504902 1.356523
C 1.876696 2.549643 0.279109
H 2.092645 3.251843 1.089725
H 2.610880 1.739997 0.332001
H 2.027650 3.077829 -0.668621
Se -1.773387 0.332008 -0.647644
H -2.473842 -3.951467 0.074301
Se 0.973792 -0.650018 -0.861321
H 0.812579 -0.953892 0.572019
$end
$scan
stre 10 11 4.500000 4.501000 0.100000
$end
