
$comment
	potential surface scanner
$end

$rem
   JOBTYPE  PES_SCAN
   UNRESTRICTED TRUE
   SYM_IGNORE  TRUE
   GEOM_OPT_MAX_CYCLES 400
   SCF_MAX_CYCLES 400
   METHOD   B3LYP
   BASIS   6-31G**
   PDB_PRINT 2
   SCF_CONVERGENCE 6
   THRESH 14
   SCF_PRINT 1
$end
$molecule
0 3
C 0.454691 0.861712 -0.621882
H -0.034583 1.386288 -1.442250
C 0.765686 1.771393 0.554582
H -0.193705 2.089196 0.985319
H 1.282151 1.200534 1.333577
C 1.586728 3.006429 0.161422
H 1.758597 3.647540 1.031439
H 2.561593 2.721906 -0.245822
H 1.066619 3.602281 -0.596381
Se -0.521033 -0.850193 -0.212474
H -1.685703 -2.060574 0.049291
Se 1.927241 -0.245419 -1.311768
H -2.136087 -2.682190 0.188446
$end
$scan
stre 10 11 1.600000 1.601000 0.100000
$end
