
$comment
	potential surface scanner
$end

$rem
   JOBTYPE  PES_SCAN
   UNRESTRICTED TRUE
   SYM_IGNORE  TRUE
   GEOM_OPT_MAX_CYCLES 400
   SCF_MAX_CYCLES 400
   METHOD   B3LYP
   BASIS   6-31G**
   PDB_PRINT 2
   SCF_CONVERGENCE 6
   THRESH 14
   SCF_PRINT 1
$end
$molecule
0 1
C 0.071129 0.519435 -0.377002
H 0.127239 0.649347 -1.459510
C 0.359777 1.848595 0.334728
H -0.481484 2.525406 0.131513
H 0.373772 1.685307 1.418664
C 1.658141 2.524154 -0.115180
H 1.783569 3.483599 0.396359
H 2.528364 1.901444 0.107979
H 1.648021 2.721121 -1.193064
Se -1.802313 0.001047 0.060518
H -1.793032 -1.356215 -0.786686
Se 1.404605 -0.915832 -0.016205
H 0.954414 -1.138507 1.371385
$end
$scan
stre 10 11 1.700000 1.701000 0.100000
$end
