
$comment
	potential surface scanner
$end

$rem
   JOBTYPE  PES_SCAN
   UNRESTRICTED TRUE
   SYM_IGNORE  TRUE
   GEOM_OPT_MAX_CYCLES 400
   SCF_MAX_CYCLES 400
   METHOD   B3LYP
   BASIS   6-31G**
   PDB_PRINT 2
   SCF_CONVERGENCE 6
   THRESH 14
   SCF_PRINT 1
$end
$molecule
0 3
C 0.026057 1.063472 -0.732698
H 0.189914 1.526105 -1.708416
C 0.439513 1.993895 0.403006
H -0.283348 2.820486 0.407418
H 0.311797 1.476543 1.360405
C 1.858163 2.558890 0.274314
H 2.059956 3.266154 1.084525
H 2.612396 1.767951 0.320733
H 1.989664 3.091961 -0.673699
Se -1.787352 0.332204 -0.636637
H -2.551307 -3.841682 0.059817
Se 1.059914 -0.646201 -0.859313
H 0.906830 -0.960879 0.574044
$end
$scan
stre 10 11 4.200000 4.201000 0.100000
$end
