
$comment
	potential surface scanner
$end

$rem
   JOBTYPE  PES_SCAN
   UNRESTRICTED TRUE
   SYM_IGNORE  TRUE
   GEOM_OPT_MAX_CYCLES 400
   SCF_MAX_CYCLES 400
   METHOD   B3LYP
   BASIS   6-31G**
   PDB_PRINT 2
   SCF_CONVERGENCE 6
   THRESH 14
   SCF_PRINT 1
$end
$molecule
0 3
C 0.022113 1.077526 -0.736825
H 0.193139 1.539626 -1.711585
C 0.440771 2.002982 0.400998
H -0.273700 2.836830 0.403075
H 0.304117 1.486499 1.357645
C 1.865391 2.553777 0.277801
H 2.071017 3.258748 1.089033
H 2.611579 1.755459 0.326927
H 2.005901 3.085792 -0.669518
Se -1.798704 0.363549 -0.646954
H -2.529927 -3.914412 0.077175
Se 1.040139 -0.641229 -0.863356
H 0.880361 -0.956248 0.569084
$end
$scan
stre 10 11 4.300000 4.301000 0.100000
$end
