
$comment
	potential surface scanner
$end

$rem
   JOBTYPE  PES_SCAN
   UNRESTRICTED TRUE
   SYM_IGNORE  TRUE
   GEOM_OPT_MAX_CYCLES 400
   SCF_MAX_CYCLES 400
   METHOD   B3LYP
   BASIS   6-31G**
   PDB_PRINT 2
   SCF_CONVERGENCE 6
   THRESH 14
   SCF_PRINT 1
$end
$molecule
0 1
C 0.195476 0.695165 -0.668347
H 0.384228 0.994083 -1.784178
C 0.371643 1.829432 0.347202
H -0.471928 2.516192 0.237067
H 0.275767 1.369629 1.338297
C 1.692261 2.599579 0.253731
H 1.724140 3.375484 1.024716
H 2.552004 1.940235 0.392467
H 1.793813 3.092770 -0.719476
Se -1.574584 0.463473 -1.370660
H -0.529072 -2.069947 0.963583
Se 1.584287 -0.577753 -0.843600
H -1.165827 -1.779436 0.702702
$end
$scan
stre 10 11 3.700000 3.701000 0.100000
$end
