
$comment
	potential surface scanner
$end

$rem
   JOBTYPE  PES_SCAN
   UNRESTRICTED TRUE
   SYM_IGNORE  TRUE
   GEOM_OPT_MAX_CYCLES 400
   SCF_MAX_CYCLES 400
   METHOD   B3LYP
   BASIS   6-31G**
   PDB_PRINT 2
   SCF_CONVERGENCE 6
   THRESH 14
   SCF_PRINT 1
$end
$molecule
0 3
C 0.017587 1.091532 -0.741056
H 0.196600 1.552860 -1.714792
C 0.442194 2.012615 0.398654
H -0.263639 2.853775 0.397911
H 0.296316 1.497384 1.354575
C 1.872699 2.549337 0.281518
H 2.082013 3.252221 1.093677
H 2.610727 1.743703 0.333803
H 2.022497 3.080037 -0.665115
Se -1.810652 0.394959 -0.656433
H -2.508313 -3.986776 0.094340
Se 1.019314 -0.636342 -0.867178
H 0.854856 -0.956407 0.563596
$end
$scan
stre 10 11 4.400000 4.401000 0.100000
$end
