
$comment
	potential surface scanner
$end

$rem
   JOBTYPE  PES_SCAN
   UNRESTRICTED TRUE
   SYM_IGNORE  TRUE
   GEOM_OPT_MAX_CYCLES 400
   SCF_MAX_CYCLES 400
   METHOD   B3LYP
   BASIS   6-31G**
   PDB_PRINT 2
   SCF_CONVERGENCE 6
   THRESH 14
   SCF_PRINT 1
$end
$molecule
0 1
C 0.311481 1.118139 -1.094277
H -1.166865 -0.128453 -2.678966
C 0.392269 2.060204 0.091140
H 0.065619 3.045777 -0.274043
H -0.363253 1.763276 0.831509
C 1.759806 2.189738 0.761861
H 1.697615 2.905113 1.587774
H 2.093720 1.228666 1.162080
H 2.515424 2.537108 0.054504
Se -1.505527 0.627884 -1.463940
H 0.004960 -1.815142 1.600379
Se 1.701313 0.551689 -2.063581
H -0.674350 -1.635092 1.359062
$end
$scan
stre 10 11 4.300000 4.301000 0.100000
$end
