
$comment
	potential surface scanner
$end

$rem
   JOBTYPE  PES_SCAN
   UNRESTRICTED TRUE
   SYM_IGNORE  TRUE
   GEOM_OPT_MAX_CYCLES 400
   SCF_MAX_CYCLES 400
   METHOD   B3LYP
   BASIS   6-31G**
   PDB_PRINT 2
   SCF_CONVERGENCE 6
   THRESH 14
   SCF_PRINT 1
$end
$molecule
0 3
C 0.421930 1.021641 -0.771410
H 0.029073 1.625261 -1.589734
C 0.700754 1.840228 0.479449
H -0.260711 2.236870 0.833353
H 1.076407 1.180425 1.268856
C 1.680718 2.995432 0.240419
H 1.842797 3.557070 1.165406
H 2.652217 2.626713 -0.103004
H 1.299268 3.694135 -0.512183
Se -0.661432 -0.614985 -0.524632
H -1.701532 -2.482645 0.323928
Se 1.874368 -0.151167 -1.423295
H -2.121664 -3.080075 0.486341
$end
$scan
stre 10 11 2.200000 2.201000 0.100000
$end
