
$comment
	potential surface scanner
$end

$rem
   JOBTYPE  PES_SCAN
   UNRESTRICTED TRUE
   SYM_IGNORE  TRUE
   GEOM_OPT_MAX_CYCLES 400
   SCF_MAX_CYCLES 400
   METHOD   B3LYP
   BASIS   6-31G**
   PDB_PRINT 2
   SCF_CONVERGENCE 6
   THRESH 14
   SCF_PRINT 1
$end
$molecule
0 1
C 0.189887 0.685353 -0.653182
H 0.389656 0.977701 -1.766253
C 0.369543 1.825150 0.355391
H -0.475017 2.510767 0.245033
H 0.279108 1.371713 1.349890
C 1.689110 2.595464 0.249846
H 1.722790 3.379451 1.012495
H 2.549852 1.938256 0.392876
H 1.787231 3.078406 -0.728864
Se -1.581672 0.439034 -1.341972
H -0.506782 -2.015628 0.909527
Se 1.573842 -0.598967 -0.812102
H -1.155341 -1.737795 0.660819
$end
$scan
stre 10 11 3.600000 3.601000 0.100000
$end
