
$comment
	potential surface scanner
$end

$rem
   JOBTYPE  PES_SCAN
   UNRESTRICTED TRUE
   SYM_IGNORE  TRUE
   GEOM_OPT_MAX_CYCLES 400
   SCF_MAX_CYCLES 400
   METHOD   B3LYP
   BASIS   6-31G**
   PDB_PRINT 2
   SCF_CONVERGENCE 6
   THRESH 14
   SCF_PRINT 1
$end
$molecule
0 3
C 0.240611 0.882129 -1.077332
H 0.571639 1.525386 -1.896350
C 0.161687 1.650134 0.238782
H -0.670958 2.358882 0.136963
H -0.125162 0.960928 1.040964
C 1.438107 2.415640 0.604009
H 1.283653 2.992451 1.520985
H 2.282001 1.740056 0.770576
H 1.723230 3.117801 -0.187177
Se -1.369684 -0.092432 -1.615649
H -1.319618 -1.215539 1.380369
Se 1.560327 -0.615350 -1.133414
H 1.056364 -1.271185 0.090774
$end
$scan
stre 10 11 3.100000 3.101000 0.100000
$end
