
$comment
	potential surface scanner
$end

$rem
   JOBTYPE  PES_SCAN
   UNRESTRICTED TRUE
   SYM_IGNORE  TRUE
   GEOM_OPT_MAX_CYCLES 400
   SCF_MAX_CYCLES 400
   METHOD   B3LYP
   BASIS   6-31G**
   PDB_PRINT 2
   SCF_CONVERGENCE 6
   THRESH 14
   SCF_PRINT 1
$end
$molecule
0 1
C 0.315336 1.070558 -1.021349
H -1.174674 -0.298910 -2.493271
C 0.403575 2.069270 0.116849
H 0.087794 3.038817 -0.297097
H -0.352313 1.816555 0.872615
C 1.774672 2.217341 0.778306
H 1.719267 2.961627 1.578759
H 2.105833 1.269212 1.210441
H 2.528868 2.535607 0.056070
Se -1.493729 0.511927 -1.308443
H -0.034140 -1.691854 1.280562
Se 1.693794 0.501523 -2.005898
H -0.742073 -1.552766 1.105959
$end
$scan
stre 10 11 3.800000 3.801000 0.100000
$end
