
$comment
	potential surface scanner
$end

$rem
   JOBTYPE  PES_SCAN
   UNRESTRICTED TRUE
   SYM_IGNORE  TRUE
   GEOM_OPT_MAX_CYCLES 400
   SCF_MAX_CYCLES 400
   METHOD   B3LYP
   BASIS   6-31G**
   PDB_PRINT 2
   SCF_CONVERGENCE 6
   THRESH 14
   SCF_PRINT 1
$end
$molecule
0 1
C 0.074145 0.512052 -0.382872
H 0.132596 0.642389 -1.465302
C 0.356161 1.841521 0.329941
H -0.487181 2.514409 0.122983
H 0.365593 1.677598 1.413808
C 1.653860 2.522014 -0.113411
H 1.772552 3.482244 0.398350
H 2.525867 1.903475 0.114475
H 1.648931 2.718864 -1.191401
Se -1.798193 -0.017252 0.048751
H -1.783308 -1.286643 -0.750264
Se 1.410779 -0.920035 -0.019638
H 0.960400 -1.141736 1.368079
$end
$scan
stre 10 11 1.600000 1.601000 0.100000
$end
