
$comment
	potential surface scanner
$end

$rem
   JOBTYPE  PES_SCAN
   UNRESTRICTED TRUE
   SYM_IGNORE  TRUE
   GEOM_OPT_MAX_CYCLES 400
   SCF_MAX_CYCLES 400
   METHOD   B3LYP
   BASIS   6-31G**
   PDB_PRINT 2
   SCF_CONVERGENCE 6
   THRESH 14
   SCF_PRINT 1
$end
$molecule
0 1
C 0.063928 0.561461 -0.360645
H 0.123417 0.691031 -1.442703
C 0.382012 1.885780 0.356024
H -0.451341 2.580031 0.179221
H 0.422765 1.712496 1.437168
C 1.679335 2.544665 -0.124243
H 1.841908 3.489649 0.403314
H 2.541388 1.897724 0.058653
H 1.637137 2.764263 -1.196702
Se -1.818092 0.111414 0.082524
H -1.835853 -1.745469 -0.898123
Se 1.367347 -0.896858 0.004620
H 0.878247 -1.147286 1.374394
$end
$scan
stre 10 11 2.200000 2.201000 0.100000
$end
