
$comment
	potential surface scanner
$end

$rem
   JOBTYPE  PES_SCAN
   UNRESTRICTED TRUE
   SYM_IGNORE  TRUE
   GEOM_OPT_MAX_CYCLES 400
   SCF_MAX_CYCLES 400
   METHOD   B3LYP
   BASIS   6-31G**
   PDB_PRINT 2
   SCF_CONVERGENCE 6
   THRESH 14
   SCF_PRINT 1
$end
$molecule
0 1
C 0.054327 0.608147 -0.328861
H 0.103468 0.736865 -1.411481
C 0.408226 1.932455 0.381949
H -0.414038 2.643269 0.222391
H 0.471805 1.758579 1.461335
C 1.706786 2.564557 -0.133216
H 1.899397 3.506075 0.390332
H 2.559464 1.900133 0.029498
H 1.640821 2.784484 -1.204208
Se -1.819822 0.207069 0.143766
H -1.951314 -2.187997 -1.095736
Se 1.340126 -0.868608 0.028951
H 0.832956 -1.136123 1.388784
$end
$scan
stre 10 11 2.800000 2.801000 0.100000
$end
