
$comment
	potential surface scanner
$end

$rem
   JOBTYPE  PES_SCAN
   UNRESTRICTED TRUE
   SYM_IGNORE  TRUE
   GEOM_OPT_MAX_CYCLES 400
   SCF_MAX_CYCLES 400
   METHOD   B3LYP
   BASIS   6-31G**
   PDB_PRINT 2
   SCF_CONVERGENCE 6
   THRESH 14
   SCF_PRINT 1
$end
$molecule
0 1
C 0.053944 0.617438 -0.327063
H 0.103310 0.747030 -1.409605
C 0.413061 1.940374 0.385210
H -0.407361 2.653945 0.228882
H 0.478905 1.764105 1.463978
C 1.712196 2.569359 -0.132575
H 1.908603 3.509273 0.392454
H 2.563323 1.902195 0.026844
H 1.643950 2.791639 -1.202905
Se -1.819215 0.222683 0.147646
H -1.978921 -2.270896 -1.115903
Se 1.335899 -0.863498 0.029547
H 0.824508 -1.134742 1.386995
$end
$scan
stre 10 11 2.900000 2.901000 0.100000
$end
