
$comment
	potential surface scanner
$end

$rem
   JOBTYPE  PES_SCAN
   UNRESTRICTED TRUE
   SYM_IGNORE  TRUE
   GEOM_OPT_MAX_CYCLES 400
   SCF_MAX_CYCLES 400
   METHOD   B3LYP
   BASIS   6-31G**
   PDB_PRINT 2
   SCF_CONVERGENCE 6
   THRESH 14
   SCF_PRINT 1
$end
$molecule
0 1
C 0.060534 0.577250 -0.351957
H 0.117082 0.707609 -1.433994
C 0.390280 1.900936 0.364313
H -0.439075 2.601356 0.193512
H 0.438054 1.726841 1.444823
C 1.688483 2.551062 -0.126682
H 1.861866 3.494069 0.400934
H 2.546954 1.897275 0.048527
H 1.638523 2.772229 -1.198409
Se -1.819734 0.147481 0.100510
H -1.868169 -1.895058 -0.955750
Se 1.356307 -0.888211 0.010522
H 0.861094 -1.143936 1.377155
$end
$scan
stre 10 11 2.400000 2.401000 0.100000
$end
