
$comment
	potential surface scanner
$end

$rem
   JOBTYPE  PES_SCAN
   UNRESTRICTED TRUE
   SYM_IGNORE  TRUE
   GEOM_OPT_MAX_CYCLES 400
   SCF_MAX_CYCLES 400
   METHOD   B3LYP
   BASIS   6-31G**
   PDB_PRINT 2
   SCF_CONVERGENCE 6
   THRESH 14
   SCF_PRINT 1
$end
$molecule
0 1
C 0.312253 1.074563 -1.031598
H -1.176986 -0.265847 -2.529709
C 0.400950 2.065337 0.113757
H 0.083314 3.037205 -0.293588
H -0.354751 1.807578 0.868024
C 1.771432 2.212357 0.776201
H 1.714201 2.951502 1.581380
H 2.105086 1.262505 1.202568
H 2.524790 2.537188 0.056104
Se -1.501216 0.541596 -1.343763
H -0.019207 -1.709477 1.335101
Se 1.693913 0.496174 -2.006716
H -0.721569 -1.561773 1.145743
$end
$scan
stre 10 11 3.900000 3.901000 0.100000
$end
