
$comment
	potential surface scanner
$end

$rem
   JOBTYPE  PES_SCAN
   UNRESTRICTED TRUE
   SYM_IGNORE  TRUE
   GEOM_OPT_MAX_CYCLES 400
   SCF_MAX_CYCLES 400
   METHOD   B3LYP
   BASIS   6-31G**
   PDB_PRINT 2
   SCF_CONVERGENCE 6
   THRESH 14
   SCF_PRINT 1
$end
$molecule
0 3
C 0.528771 0.985594 -1.039801
H 0.107334 1.712643 -1.733987
C 0.673716 1.547084 0.365533
H -0.336949 1.746340 0.747090
H 1.112511 0.787540 1.020826
C 1.506536 2.834560 0.405235
H 1.560683 3.225153 1.425741
H 2.528992 2.657442 0.057416
H 1.065783 3.612084 -0.228166
Se -0.402956 -0.748258 -1.210876
H -1.621306 -1.830648 0.684922
Se 2.113206 0.117071 -1.835232
H -2.004127 -2.197700 1.214796
$end
$scan
stre 10 11 2.400000 2.401000 0.100000
$end
