
$comment
	potential surface scanner
$end

$rem
   JOBTYPE  PES_SCAN
   UNRESTRICTED TRUE
   SYM_IGNORE  TRUE
   GEOM_OPT_MAX_CYCLES 400
   SCF_MAX_CYCLES 400
   METHOD   B3LYP
   BASIS   6-31G**
   PDB_PRINT 2
   SCF_CONVERGENCE 6
   THRESH 14
   SCF_PRINT 1
$end
$molecule
0 1
C 0.162585 0.684547 -0.669237
H 0.394818 0.976111 -1.768483
C 0.349961 1.823043 0.341374
H -0.476697 2.526832 0.209438
H 0.223799 1.375969 1.334919
C 1.687000 2.564940 0.265323
H 1.720704 3.346758 1.030280
H 2.531388 1.890612 0.425000
H 1.816645 3.047928 -0.709761
Se -1.620788 0.401520 -1.292221
H -0.421179 -1.924273 0.878408
Se 1.546736 -0.612280 -0.822484
H -1.082766 -1.652802 0.650947
$end
$scan
stre 10 11 3.500000 3.501000 0.100000
$end
