
$comment
	potential surface scanner
$end

$rem
   JOBTYPE  PES_SCAN
   UNRESTRICTED TRUE
   SYM_IGNORE  TRUE
   GEOM_OPT_MAX_CYCLES 400
   SCF_MAX_CYCLES 400
   METHOD   B3LYP
   BASIS   6-31G**
   PDB_PRINT 2
   SCF_CONVERGENCE 6
   THRESH 14
   SCF_PRINT 1
$end
$molecule
0 1
Br -3.465281 0.856882 0.046485
Br 2.922317 0.573048 0.023428
C 0.049415 0.179698 0.014613
C -1.074782 -0.783859 -0.012513
C 1.366813 -0.635649 -0.001974
H 0.016179 0.790518 0.918866
H 0.020692 0.835328 -0.857841
H -1.385778 -1.238450 -0.946877
H -1.385937 -1.289985 0.894828
H 1.468770 -1.235776 -0.905720
H 1.467496 -1.273052 0.876107
$end
$scan
stre 1 4 3.000000 3.001000 0.100000
$end
