
$comment
	potential surface scanner
$end

$rem
   JOBTYPE  PES_SCAN
   UNRESTRICTED TRUE
   SYM_IGNORE  TRUE
   GEOM_OPT_MAX_CYCLES 400
   SCF_MAX_CYCLES 400
   METHOD   B3LYP
   BASIS   6-31G**
   PDB_PRINT 2
   SCF_CONVERGENCE 6
   THRESH 14
   SCF_PRINT 1
$end
$molecule
0 3
Br -4.518013 1.794109 0.005245
Br 2.921805 0.801271 0.013637
C 0.103090 0.010449 0.019750
C -0.922193 -1.074690 -0.003616
C 1.515424 -0.595020 -0.001166
H -0.001981 0.627775 0.918634
H -0.009450 0.671642 -0.846322
H -1.252893 -1.507247 -0.942333
H -1.240650 -1.560216 0.913099
H 1.696110 -1.177923 -0.903660
H 1.708652 -1.211450 0.876131
$end
$scan
stre 1 4 4.500000 4.501000 0.100000
$end
