
$comment
	potential surface scanner
$end

$rem
   JOBTYPE  PES_SCAN
   UNRESTRICTED TRUE
   SYM_IGNORE  TRUE
   GEOM_OPT_MAX_CYCLES 400
   SCF_MAX_CYCLES 400
   METHOD   B3LYP
   BASIS   6-31G**
   PDB_PRINT 2
   SCF_CONVERGENCE 6
   THRESH 14
   SCF_PRINT 1
$end
$molecule
0 1
Br -3.321003 0.787053 0.038135
Br 2.913015 0.562140 0.024296
C 0.037547 0.192476 0.016071
C -1.107205 -0.757880 -0.009622
C 1.343280 -0.631445 -0.003170
H 0.008612 0.805666 0.918884
H 0.010411 0.851236 -0.854118
H -1.383250 -1.240096 -0.941218
H -1.384745 -1.287678 0.895220
H 1.441849 -1.230629 -0.908150
H 1.441393 -1.272140 0.873073
$end
$scan
stre 1 4 2.800000 2.801000 0.100000
$end
