
$comment
	potential surface scanner
$end

$rem
   JOBTYPE  PES_SCAN
   UNRESTRICTED TRUE
   SYM_IGNORE  TRUE
   GEOM_OPT_MAX_CYCLES 400
   SCF_MAX_CYCLES 400
   METHOD   B3LYP
   BASIS   6-31G**
   PDB_PRINT 2
   SCF_CONVERGENCE 6
   THRESH 14
   SCF_PRINT 1
$end
$molecule
0 3
Br -2.929269 0.542598 -0.099307
Br 2.875612 0.684644 -0.026587
C -0.054657 0.230563 -0.024265
C -1.181102 -0.786193 0.035700
C 1.249537 -0.563002 0.023967
H -0.093927 0.925557 0.821545
H -0.088872 0.819993 -0.947446
H -1.252730 -1.442544 -0.830655
H -1.276353 -1.306876 0.987276
H 1.381385 -1.207853 -0.842500
H 1.370275 -1.118179 0.951678
$end
$scan
stre 1 4 2.100000 2.101000 0.100000
$end
