
$comment
	potential surface scanner
$end

$rem
   JOBTYPE  PES_SCAN
   UNRESTRICTED TRUE
   SYM_IGNORE  TRUE
   GEOM_OPT_MAX_CYCLES 400
   SCF_MAX_CYCLES 400
   METHOD   B3LYP
   BASIS   6-31G**
   PDB_PRINT 2
   SCF_CONVERGENCE 6
   THRESH 14
   SCF_PRINT 1
$end
$molecule
0 3
Br -4.445026 1.746326 0.005795
Br 2.917695 0.798958 0.013725
C 0.096787 0.016840 0.019604
C -0.931557 -1.065337 -0.003769
C 1.507431 -0.593202 -0.001072
H -0.006354 0.634120 0.918743
H -0.013393 0.677834 -0.846944
H -1.260882 -1.498812 -0.942556
H -1.249308 -1.551258 0.912993
H 1.686139 -1.176725 -0.903547
H 1.698370 -1.210044 0.876428
$end
$scan
stre 1 4 4.400000 4.401000 0.100000
$end
