
$comment
	potential surface scanner
$end

$rem
   JOBTYPE  PES_SCAN
   UNRESTRICTED TRUE
   SYM_IGNORE  TRUE
   GEOM_OPT_MAX_CYCLES 400
   SCF_MAX_CYCLES 400
   METHOD   B3LYP
   BASIS   6-31G**
   PDB_PRINT 2
   SCF_CONVERGENCE 6
   THRESH 14
   SCF_PRINT 1
$end
$molecule
0 3
Br -2.639462 0.907831 0.774606
Br 2.734158 0.859440 0.156829
C -0.056977 0.072826 -0.259484
C -1.121567 -0.965303 -0.198723
C 1.300174 -0.498812 0.170422
H -0.265584 0.933758 0.426660
H 0.006357 0.519054 -1.256081
H -1.670494 -1.246691 -1.088386
H -1.181984 -1.630450 0.655555
H 1.622932 -1.280271 -0.517877
H 1.272345 -0.892676 1.185887
$end
$scan
stre 1 4 2.500000 2.501000 0.100000
$end
