
$comment
	potential surface scanner
$end

$rem
   JOBTYPE  PES_SCAN
   UNRESTRICTED TRUE
   SYM_IGNORE  TRUE
   GEOM_OPT_MAX_CYCLES 400
   SCF_MAX_CYCLES 400
   METHOD   B3LYP
   BASIS   6-31G**
   PDB_PRINT 2
   SCF_CONVERGENCE 6
   THRESH 14
   SCF_PRINT 1
$end
$molecule
0 1
Br -3.128321 0.669223 0.027167
Br 2.902488 0.536725 0.022891
C 0.021215 0.215234 0.018527
C -1.162722 -0.707488 -0.005802
C 1.306035 -0.626518 -0.004030
H 0.002970 0.832814 0.919054
H 0.002878 0.879265 -0.848294
H -1.368647 -1.238229 -0.930615
H -1.369620 -1.285232 0.890294
H 1.395708 -1.225945 -0.910158
H 1.397918 -1.271147 0.870368
$end
$scan
stre 1 4 2.500000 2.501000 0.100000
$end
