
$comment
	potential surface scanner
$end

$rem
   JOBTYPE  PES_SCAN
   UNRESTRICTED TRUE
   SYM_IGNORE  TRUE
   GEOM_OPT_MAX_CYCLES 400
   SCF_MAX_CYCLES 400
   METHOD   B3LYP
   BASIS   6-31G**
   PDB_PRINT 2
   SCF_CONVERGENCE 6
   THRESH 14
   SCF_PRINT 1
$end
$molecule
0 3
Br -3.968878 1.260336 0.006687
Br 2.926300 0.737054 0.016542
C 0.075108 0.077286 0.018248
C -1.004455 -0.953729 -0.003888
C 1.455890 -0.595828 -0.000778
H 0.000935 0.700664 0.915868
H -0.003159 0.742069 -0.848674
H -1.363671 -1.364007 -0.941732
H -1.349957 -1.418436 0.913512
H 1.611747 -1.186217 -0.903133
H 1.620040 -1.220491 0.876753
$end
$scan
stre 1 4 3.600000 3.601000 0.100000
$end
