
$comment
	potential surface scanner
$end

$rem
   JOBTYPE  PES_SCAN
   UNRESTRICTED TRUE
   SYM_IGNORE  TRUE
   GEOM_OPT_MAX_CYCLES 400
   SCF_MAX_CYCLES 400
   METHOD   B3LYP
   BASIS   6-31G**
   PDB_PRINT 2
   SCF_CONVERGENCE 6
   THRESH 14
   SCF_PRINT 1
$end
$molecule
0 3
Br -4.011158 1.336192 0.005369
Br 2.918273 0.754457 0.015460
C 0.074550 0.065983 0.018699
C -0.995090 -0.975356 -0.003694
C 1.462198 -0.593051 -0.000746
H -0.005480 0.688317 0.916582
H -0.010469 0.730337 -0.847900
H -1.352717 -1.386778 -0.941736
H -1.336725 -1.443487 0.913484
H 1.623521 -1.182128 -0.902986
H 1.632998 -1.215785 0.876871
$end
$scan
stre 1 4 3.700000 3.701000 0.100000
$end
