
$comment
	potential surface scanner
$end

$rem
   JOBTYPE  PES_SCAN
   UNRESTRICTED TRUE
   SYM_IGNORE  TRUE
   GEOM_OPT_MAX_CYCLES 400
   SCF_MAX_CYCLES 400
   METHOD   B3LYP
   BASIS   6-31G**
   PDB_PRINT 2
   SCF_CONVERGENCE 6
   THRESH 14
   SCF_PRINT 1
$end
$molecule
0 3
Br -5.035798 2.230740 0.002033
Br 2.927377 0.848698 0.013439
C 0.135373 -0.047264 0.021645
C -0.844003 -1.173498 -0.002328
C 1.569800 -0.597176 -0.003000
H 0.007289 0.563040 0.922301
H -0.004791 0.609648 -0.843766
H -1.160271 -1.615676 -0.941144
H -1.154987 -1.661802 0.915044
H 1.771617 -1.170303 -0.907212
H 1.788297 -1.207708 0.872387
$end
$scan
stre 1 4 5.300000 5.301000 0.100000
$end
