
$comment
	potential surface scanner
$end

$rem
   JOBTYPE  PES_SCAN
   UNRESTRICTED TRUE
   SYM_IGNORE  TRUE
   GEOM_OPT_MAX_CYCLES 400
   SCF_MAX_CYCLES 400
   METHOD   B3LYP
   BASIS   6-31G**
   PDB_PRINT 2
   SCF_CONVERGENCE 6
   THRESH 14
   SCF_PRINT 1
$end
$molecule
0 1
Br -2.957898 0.538748 0.023479
Br 2.895098 0.501351 0.022610
C 0.006182 0.239956 0.019055
C -1.225275 -0.647532 -0.004074
C 1.267672 -0.623023 -0.004078
H 0.000929 0.862648 0.917273
H 0.000611 0.908664 -0.845459
H -1.340609 -1.230567 -0.916376
H -1.341750 -1.276309 0.877301
H 1.346509 -1.224757 -0.910044
H 1.348431 -1.270479 0.869715
$end
$scan
stre 1 4 2.200000 2.201000 0.100000
$end
