
$comment
	potential surface scanner
$end

$rem
   JOBTYPE  PES_SCAN
   UNRESTRICTED TRUE
   SYM_IGNORE  TRUE
   GEOM_OPT_MAX_CYCLES 400
   SCF_MAX_CYCLES 400
   METHOD   B3LYP
   BASIS   6-31G**
   PDB_PRINT 2
   SCF_CONVERGENCE 6
   THRESH 14
   SCF_PRINT 1
$end
$molecule
0 3
Br -2.697885 1.095523 0.860170
Br 2.710089 0.905242 0.172841
C -0.048705 0.032861 -0.272005
C -1.077077 -1.041766 -0.242092
C 1.320849 -0.496266 0.169981
H -0.306040 0.870137 0.420966
H 0.018874 0.490558 -1.263065
H -1.691493 -1.258049 -1.106933
H -1.202970 -1.660499 0.639615
H 1.678151 -1.265809 -0.514604
H 1.296107 -0.893227 1.184534
$end
$scan
stre 1 4 2.800000 2.801000 0.100000
$end
