
$comment
	potential surface scanner
$end

$rem
   JOBTYPE  PES_SCAN
   UNRESTRICTED TRUE
   SYM_IGNORE  TRUE
   GEOM_OPT_MAX_CYCLES 400
   SCF_MAX_CYCLES 400
   METHOD   B3LYP
   BASIS   6-31G**
   PDB_PRINT 2
   SCF_CONVERGENCE 6
   THRESH 14
   SCF_PRINT 1
$end
$molecule
0 1
Br -2.903656 0.493781 0.024268
Br 2.892609 0.488215 0.022676
C 0.000998 0.248242 0.018901
C -1.247331 -0.626844 -0.003795
C 1.254821 -0.622170 -0.003676
H -0.000056 0.872992 0.916159
H 0.000101 0.917706 -0.845536
H -1.329100 -1.225335 -0.911330
H -1.329219 -1.272603 0.870844
H 1.329655 -1.225084 -0.909302
H 1.331078 -1.270200 0.870191
$end
$scan
stre 1 4 2.100000 2.101000 0.100000
$end
