
$comment
	potential surface scanner
$end

$rem
   JOBTYPE  PES_SCAN
   UNRESTRICTED TRUE
   SYM_IGNORE  TRUE
   GEOM_OPT_MAX_CYCLES 400
   SCF_MAX_CYCLES 400
   METHOD   B3LYP
   BASIS   6-31G**
   PDB_PRINT 2
   SCF_CONVERGENCE 6
   THRESH 14
   SCF_PRINT 1
$end
$molecule
0 1
Br -3.188871 0.711021 0.031691
Br 2.905224 0.546726 0.024284
C 0.026203 0.207238 0.017188
C -1.143392 -0.725810 -0.007438
C 1.318539 -0.627951 -0.003941
H 0.004067 0.823095 0.918593
H 0.004293 0.869753 -0.850500
H -1.374877 -1.240578 -0.934565
H -1.376006 -1.286428 0.892470
H 1.412212 -1.227257 -0.909588
H 1.412511 -1.271108 0.871207
$end
$scan
stre 1 4 2.600000 2.601000 0.100000
$end
