
$comment
	potential surface scanner
$end

$rem
   JOBTYPE  PES_SCAN
   UNRESTRICTED TRUE
   SYM_IGNORE  TRUE
   GEOM_OPT_MAX_CYCLES 400
   SCF_MAX_CYCLES 400
   METHOD   B3LYP
   BASIS   6-31G**
   PDB_PRINT 2
   SCF_CONVERGENCE 6
   THRESH 14
   SCF_PRINT 1
$end
$molecule
0 1
Br -3.684661 0.975924 0.029340
Br 2.933394 0.592149 0.019917
C 0.066442 0.158023 0.019824
C -1.036104 -0.819583 -0.006777
C 1.400435 -0.641142 -0.005754
H 0.032832 0.763113 0.928103
H 0.029821 0.813772 -0.852532
H -1.376818 -1.250841 -0.942207
H -1.381093 -1.297347 0.904118
H 1.504650 -1.234240 -0.913526
H 1.511005 -1.281125 0.868894
$end
$scan
stre 1 4 3.300000 3.301000 0.100000
$end
