
$comment
	potential surface scanner
$end

$rem
   JOBTYPE  PES_SCAN
   UNRESTRICTED TRUE
   SYM_IGNORE  TRUE
   GEOM_OPT_MAX_CYCLES 400
   SCF_MAX_CYCLES 400
   METHOD   B3LYP
   BASIS   6-31G**
   PDB_PRINT 2
   SCF_CONVERGENCE 6
   THRESH 14
   SCF_PRINT 1
$end
$molecule
0 3
Br -4.168074 1.542104 0.007147
Br 2.906771 0.782450 0.014332
C 0.075133 0.044928 0.018888
C -0.969240 -1.022528 -0.004243
C 1.475625 -0.588460 -0.000514
H -0.017347 0.663954 0.917937
H -0.022998 0.706375 -0.848650
H -1.298317 -1.456209 -0.943102
H -1.284280 -1.510452 0.912491
H 1.646079 -1.175623 -0.902283
H 1.656547 -1.207838 0.877399
$end
$scan
stre 1 4 4.000000 4.001000 0.100000
$end
