
$comment
	potential surface scanner
$end

$rem
   JOBTYPE  PES_SCAN
   UNRESTRICTED TRUE
   SYM_IGNORE  TRUE
   GEOM_OPT_MAX_CYCLES 400
   SCF_MAX_CYCLES 400
   METHOD   B3LYP
   BASIS   6-31G**
   PDB_PRINT 2
   SCF_CONVERGENCE 6
   THRESH 14
   SCF_PRINT 1
$end
$molecule
0 3
Br -4.859557 2.055102 0.004904
Br 2.933261 0.820599 0.013503
C 0.126358 -0.021587 0.020314
C -0.875174 -1.128390 -0.003404
C 1.550214 -0.599291 -0.001700
H 0.009095 0.592505 0.919936
H 0.000018 0.637135 -0.845845
H -1.194784 -1.568613 -0.942229
H -1.186145 -1.617938 0.913563
H 1.741293 -1.178146 -0.904647
H 1.755325 -1.212677 0.875003
$end
$scan
stre 1 4 5.000000 5.001000 0.100000
$end
