
$comment
	potential surface scanner
$end

$rem
   JOBTYPE  PES_SCAN
   UNRESTRICTED TRUE
   SYM_IGNORE  TRUE
   GEOM_OPT_MAX_CYCLES 400
   SCF_MAX_CYCLES 400
   METHOD   B3LYP
   BASIS   6-31G**
   PDB_PRINT 2
   SCF_CONVERGENCE 6
   THRESH 14
   SCF_PRINT 1
$end
$molecule
0 3
Br -3.161904 1.255224 0.071842
Br 2.792980 0.842362 0.026865
C -0.036680 0.068937 0.000925
C -1.057119 -1.018623 -0.025631
C 1.378490 -0.542575 0.011542
H -0.145658 0.697318 0.893393
H -0.126150 0.719070 -0.877169
H -1.379659 -1.454894 -0.964674
H -1.378513 -1.501699 0.890545
H 1.564673 -1.139927 -0.880131
H 1.549440 -1.146487 0.901900
$end
$scan
stre 1 4 3.000000 3.001000 0.100000
$end
