
$comment
	potential surface scanner
$end

$rem
   JOBTYPE  PES_SCAN
   UNRESTRICTED TRUE
   SYM_IGNORE  TRUE
   GEOM_OPT_MAX_CYCLES 400
   SCF_MAX_CYCLES 400
   METHOD   B3LYP
   BASIS   6-31G**
   PDB_PRINT 2
   SCF_CONVERGENCE 6
   THRESH 14
   SCF_PRINT 1
$end
$molecule
0 3
Br -4.304490 1.645560 0.006703
Br 2.911486 0.792904 0.013951
C 0.086211 0.029261 0.019207
C -0.950564 -1.045363 -0.004096
C 1.492344 -0.590657 -0.000815
H -0.012238 0.648324 0.917691
H -0.018589 0.691543 -0.847038
H -1.281374 -1.478208 -0.942734
H -1.269808 -1.530632 0.912576
H 1.667774 -1.175633 -0.903028
H 1.679148 -1.208397 0.876984
$end
$scan
stre 1 4 4.200000 4.201000 0.100000
$end
