
$comment
	potential surface scanner
$end

$rem
   JOBTYPE  PES_SCAN
   UNRESTRICTED TRUE
   SYM_IGNORE  TRUE
   GEOM_OPT_MAX_CYCLES 400
   SCF_MAX_CYCLES 400
   METHOD   B3LYP
   BASIS   6-31G**
   PDB_PRINT 2
   SCF_CONVERGENCE 6
   THRESH 14
   SCF_PRINT 1
$end
$molecule
0 3
Br -4.798832 1.997203 0.005180
Br 2.934000 0.812931 0.013519
C 0.123332 -0.013883 0.020071
C -0.885088 -1.114473 -0.003550
C 1.543909 -0.599801 -0.001460
H 0.009654 0.601121 0.919559
H 0.001172 0.645437 -0.846238
H -1.207718 -1.552565 -0.942371
H -1.197655 -1.603196 0.913355
H 1.731824 -1.180039 -0.904186
H 1.745305 -1.214036 0.875518
$end
$scan
stre 1 4 4.900000 4.901000 0.100000
$end
