
$comment
	potential surface scanner
$end

$rem
   JOBTYPE  PES_SCAN
   UNRESTRICTED TRUE
   SYM_IGNORE  TRUE
   GEOM_OPT_MAX_CYCLES 400
   SCF_MAX_CYCLES 400
   METHOD   B3LYP
   BASIS   6-31G**
   PDB_PRINT 2
   SCF_CONVERGENCE 6
   THRESH 14
   SCF_PRINT 1
$end
$molecule
0 3
Br -5.172990 2.335185 -0.000628
Br 2.931537 0.855747 0.012710
C 0.145439 -0.060352 0.023221
C -0.825179 -1.194198 -0.001333
C 1.583644 -0.599606 -0.004307
H 0.013511 0.548121 0.924512
H -0.001192 0.597335 -0.840590
H -1.134615 -1.641267 -0.940180
H -1.136504 -1.682494 0.915971
H 1.788429 -1.169792 -0.909718
H 1.807824 -1.209977 0.869740
$end
$scan
stre 1 4 5.500000 5.501000 0.100000
$end
