
$comment
	potential surface scanner
$end

$rem
   JOBTYPE  PES_SCAN
   UNRESTRICTED TRUE
   SYM_IGNORE  TRUE
   GEOM_OPT_MAX_CYCLES 400
   SCF_MAX_CYCLES 400
   METHOD   B3LYP
   BASIS   6-31G**
   PDB_PRINT 2
   SCF_CONVERGENCE 6
   THRESH 14
   SCF_PRINT 1
$end
$molecule
0 3
Br -2.699545 1.173280 0.896780
Br 2.696684 0.922077 0.182401
C -0.049610 0.019559 -0.276990
C -1.068061 -1.065487 -0.254819
C 1.322584 -0.494867 0.170295
H -0.324504 0.849231 0.417033
H 0.019279 0.480689 -1.266272
H -1.684781 -1.276870 -1.119432
H -1.204354 -1.676441 0.630930
H 1.693220 -1.258050 -0.514402
H 1.298988 -0.894415 1.183883
$end
$scan
stre 1 4 2.900000 2.901000 0.100000
$end
