
$comment
	potential surface scanner
$end

$rem
   JOBTYPE  PES_SCAN
   UNRESTRICTED TRUE
   SYM_IGNORE  TRUE
   GEOM_OPT_MAX_CYCLES 400
   SCF_MAX_CYCLES 400
   METHOD   B3LYP
   BASIS   6-31G**
   PDB_PRINT 2
   SCF_CONVERGENCE 6
   THRESH 14
   SCF_PRINT 1
$end
$molecule
0 3
Br -2.654469 0.967722 0.805839
Br 2.724962 0.877342 0.163236
C -0.053606 0.057559 -0.265433
C -1.104892 -0.993175 -0.215775
C 1.308302 -0.497419 0.170926
H -0.279651 0.911223 0.423010
H 0.011824 0.507670 -1.260129
H -1.684550 -1.245904 -1.094282
H -1.192951 -1.639603 0.650211
H 1.644535 -1.275497 -0.514710
H 1.280394 -0.891213 1.186515
$end
$scan
stre 1 4 2.600000 2.601000 0.100000
$end
