
$comment
	potential surface scanner
$end

$rem
   JOBTYPE  PES_SCAN
   UNRESTRICTED TRUE
   SYM_IGNORE  TRUE
   GEOM_OPT_MAX_CYCLES 400
   SCF_MAX_CYCLES 400
   METHOD   B3LYP
   BASIS   6-31G**
   PDB_PRINT 2
   SCF_CONVERGENCE 6
   THRESH 14
   SCF_PRINT 1
$end
$molecule
0 3
Br -4.977675 2.173403 0.003146
Br 2.930048 0.837238 0.013421
C 0.131295 -0.037004 0.021197
C -0.855066 -1.157373 -0.002731
C 1.561863 -0.597668 -0.002478
H 0.007343 0.574483 0.921609
H -0.003715 0.620274 -0.844703
H -1.167506 -1.602200 -0.941720
H -1.160862 -1.649468 0.914524
H 1.759260 -1.173290 -0.906131
H 1.774918 -1.209696 0.873266
$end
$scan
stre 1 4 5.200000 5.201000 0.100000
$end
