
$comment
	potential surface scanner
$end

$rem
   JOBTYPE  PES_SCAN
   UNRESTRICTED TRUE
   SYM_IGNORE  TRUE
   GEOM_OPT_MAX_CYCLES 400
   SCF_MAX_CYCLES 400
   METHOD   B3LYP
   BASIS   6-31G**
   PDB_PRINT 2
   SCF_CONVERGENCE 6
   THRESH 14
   SCF_PRINT 1
$end
$molecule
0 1
Br -3.390885 0.823225 0.047990
Br 2.917326 0.568621 0.023526
C 0.043408 0.185466 0.014236
C -1.090566 -0.772024 -0.012940
C 1.355363 -0.633380 -0.001525
H 0.010570 0.798087 0.917292
H 0.015726 0.842368 -0.857307
H -1.385510 -1.238565 -0.946649
H -1.386624 -1.289556 0.892532
H 1.456517 -1.234796 -0.904639
H 1.454578 -1.270742 0.876886
$end
$scan
stre 1 4 2.900000 2.901000 0.100000
$end
