
$comment
	potential surface scanner
$end

$rem
   JOBTYPE  PES_SCAN
   UNRESTRICTED TRUE
   SYM_IGNORE  TRUE
   GEOM_OPT_MAX_CYCLES 400
   SCF_MAX_CYCLES 400
   METHOD   B3LYP
   BASIS   6-31G**
   PDB_PRINT 2
   SCF_CONVERGENCE 6
   THRESH 14
   SCF_PRINT 1
$end
$molecule
0 1
Br -3.253610 0.749250 0.037478
Br 2.909060 0.554367 0.024890
C 0.031619 0.200146 0.015886
C -1.124530 -0.742334 -0.009320
C 1.330727 -0.629623 -0.003201
H 0.005652 0.814988 0.917736
H 0.007315 0.860517 -0.853234
H -1.379659 -1.240421 -0.938864
H -1.380180 -1.287740 0.893103
H 1.427333 -1.229471 -0.908058
H 1.426178 -1.270977 0.872985
$end
$scan
stre 1 4 2.700000 2.701000 0.100000
$end
