
$comment
	potential surface scanner
$end

$rem
   JOBTYPE  PES_SCAN
   UNRESTRICTED TRUE
   SYM_IGNORE  TRUE
   GEOM_OPT_MAX_CYCLES 400
   SCF_MAX_CYCLES 400
   METHOD   B3LYP
   BASIS   6-31G**
   PDB_PRINT 2
   SCF_CONVERGENCE 6
   THRESH 14
   SCF_PRINT 1
$end
$molecule
0 3
Br -4.097708 1.489480 0.006526
Br 2.903552 0.781339 0.014700
C 0.071000 0.048983 0.018672
C -0.977729 -1.013644 -0.004056
C 1.470712 -0.587143 -0.000414
H -0.019955 0.668180 0.917914
H -0.025249 0.710206 -0.849385
H -1.315629 -1.440451 -0.942822
H -1.298284 -1.497459 0.912835
H 1.639558 -1.174289 -0.902446
H 1.649633 -1.206501 0.877879
$end
$scan
stre 1 4 3.900000 3.901000 0.100000
$end
