
$comment
	potential surface scanner
$end

$rem
   JOBTYPE  PES_SCAN
   UNRESTRICTED TRUE
   SYM_IGNORE  TRUE
   GEOM_OPT_MAX_CYCLES 400
   SCF_MAX_CYCLES 400
   METHOD   B3LYP
   BASIS   6-31G**
   PDB_PRINT 2
   SCF_CONVERGENCE 6
   THRESH 14
   SCF_PRINT 1
$end
$molecule
0 1
Br -3.070438 0.625524 0.030113
Br 2.900238 0.525179 0.023471
C 0.016341 0.223713 0.017605
C -1.182709 -0.687926 -0.006341
C 1.293268 -0.625240 -0.003350
H 0.001667 0.843622 0.916875
H 0.002692 0.888736 -0.848843
H -1.361771 -1.234707 -0.928257
H -1.360368 -1.283855 0.885039
H 1.380150 -1.226571 -0.908615
H 1.380831 -1.269774 0.871705
$end
$scan
stre 1 4 2.400000 2.401000 0.100000
$end
