
$comment
	potential surface scanner
$end

$rem
   JOBTYPE  PES_SCAN
   UNRESTRICTED TRUE
   SYM_IGNORE  TRUE
   GEOM_OPT_MAX_CYCLES 400
   SCF_MAX_CYCLES 400
   METHOD   B3LYP
   BASIS   6-31G**
   PDB_PRINT 2
   SCF_CONVERGENCE 6
   THRESH 14
   SCF_PRINT 1
$end
$molecule
0 1
Br -3.013305 0.582706 0.032023
Br 2.897361 0.514135 0.024830
C 0.011306 0.231540 0.016570
C -1.203986 -0.668238 -0.006759
C 1.280751 -0.624103 -0.003379
H 0.000926 0.852889 0.915249
H 0.001991 0.898258 -0.849012
H -1.353257 -1.232407 -0.924519
H -1.350851 -1.280268 0.880364
H 1.365218 -1.226859 -0.908022
H 1.363747 -1.268952 0.872056
$end
$scan
stre 1 4 2.300000 2.301000 0.100000
$end
