
$comment
	potential surface scanner
$end

$rem
   JOBTYPE  PES_SCAN
   UNRESTRICTED TRUE
   SYM_IGNORE  TRUE
   GEOM_OPT_MAX_CYCLES 400
   SCF_MAX_CYCLES 400
   METHOD   B3LYP
   BASIS   6-31G**
   PDB_PRINT 2
   SCF_CONVERGENCE 6
   THRESH 14
   SCF_PRINT 1
$end
$molecule
0 1
Br -3.540042 0.893262 0.040769
Br 2.927009 0.577743 0.022490
C 0.055468 0.173391 0.016237
C -1.060838 -0.795200 -0.010599
C 1.377837 -0.637745 -0.003197
H 0.022176 0.782302 0.921830
H 0.024350 0.828886 -0.856298
H -1.383354 -1.240871 -0.945398
H -1.383980 -1.291266 0.898210
H 1.480108 -1.235576 -0.908316
H 1.481169 -1.276223 0.873674
$end
$scan
stre 1 4 3.100000 3.101000 0.100000
$end
