
$comment
	potential surface scanner
$end

$rem
   JOBTYPE  PES_SCAN
   UNRESTRICTED TRUE
   SYM_IGNORE  TRUE
   GEOM_OPT_MAX_CYCLES 400
   SCF_MAX_CYCLES 400
   METHOD   B3LYP
   BASIS   6-31G**
   PDB_PRINT 2
   SCF_CONVERGENCE 6
   THRESH 14
   SCF_PRINT 1
$end
$molecule
0 1
Br -2.849898 0.448862 0.028323
Br 2.890110 0.474759 0.024676
C -0.004315 0.256516 0.017436
C -1.269902 -0.605914 -0.004237
C 1.241753 -0.621682 -0.003305
H -0.001342 0.883070 0.913885
H -0.000717 0.926425 -0.847147
H -1.317743 -1.219815 -0.906027
H -1.314822 -1.268278 0.862841
H 1.314140 -1.225815 -0.908330
H 1.312635 -1.269427 0.871286
$end
$scan
stre 1 4 2.000000 2.001000 0.100000
$end
