
$comment
	potential surface scanner
$end

$rem
   JOBTYPE  PES_SCAN
   UNRESTRICTED TRUE
   SYM_IGNORE  TRUE
   GEOM_OPT_MAX_CYCLES 400
   SCF_MAX_CYCLES 400
   METHOD   B3LYP
   BASIS   6-31G**
   PDB_PRINT 2
   SCF_CONVERGENCE 6
   THRESH 14
   SCF_PRINT 1
$end
$molecule
0 1
Br -3.613023 0.933246 0.031957
Br 2.930594 0.584151 0.020923
C 0.061012 0.166195 0.018789
C -1.047975 -0.807146 -0.007641
C 1.388974 -0.639567 -0.005033
H 0.028315 0.772733 0.926042
H 0.026775 0.822073 -0.853424
H -1.380057 -1.245479 -0.942708
H -1.382271 -1.293608 0.902500
H 1.491457 -1.234239 -0.912077
H 1.496102 -1.279657 0.870073
$end
$scan
stre 1 4 3.200000 3.201000 0.100000
$end
