$comment
     A single point DFT calculation of PE with thio-ketone
$end

$molecule
0  3
S -1.38480 -0.00009 -0.00065
C 0.25474 0.00000 -0.00046
C 1.06965 1.26880 0.00007
C 1.06993 -1.26864 0.00006
H 1.72378 1.29023 0.88230
H 1.73058 1.28750 -0.87707
H 0.44018 2.15893 -0.00345
H 0.44073 -2.15896 -0.00203
H 1.72526 -1.28932 0.88140
H 1.72968 -1.28788 -0.87796
$end

$rem
     JOBTYPE  OPT
     UNRESTRICTED TRUE 
     SYM_IGNORE  TRUE
     GEOM_OPT_MAX_CYCLES 400 
     SCF_MAX_CYCLES 400
     METHOD   B3LYP
     BASIS   6-31G**
     PDB_PRINT 2
     SCF_CONVERGENCE 8
     THRESH 10
     SCF_PRINT 1
$end

