
$comment
	potential surface scanner
$end

$rem
   JOBTYPE  PES_SCAN
   UNRESTRICTED TRUE
   SYM_IGNORE  TRUE
   GEOM_OPT_MAX_CYCLES 400
   SCF_MAX_CYCLES 400
   METHOD   B3LYP
   BASIS   6-31G**
   PDB_PRINT 2
   SCF_CONVERGENCE 6
   THRESH 14
   SCF_PRINT 1
$end
$molecule
0 3
Cl 2.403871 0.079343 -0.978472
C -0.758248 0.456240 -0.314469
C 0.516438 0.481166 0.448461
C -1.772880 -0.532948 0.287427
H -0.555524 0.199585 -1.361074
H -1.212738 1.463138 -0.333192
H 0.513041 0.537634 1.539379
H 1.375270 1.084054 0.032635
H -2.007916 -0.277587 1.325933
H -2.706553 -0.515893 -0.282697
H -1.379161 -1.553135 0.270761
$end
$scan
stre 1 3 2.300000 2.301000 0.100000
$end
