
$comment
	potential surface scanner
$end

$rem
   JOBTYPE  PES_SCAN
   UNRESTRICTED TRUE
   SYM_IGNORE  TRUE
   GEOM_OPT_MAX_CYCLES 400
   SCF_MAX_CYCLES 400
   METHOD   B3LYP
   BASIS   6-31G**
   PDB_PRINT 2
   SCF_CONVERGENCE 6
   THRESH 14
   SCF_PRINT 1
$end
$molecule
0 3
Cl 2.276664 -1.549118 -0.489817
C -0.904249 0.706746 -0.286264
C 0.397485 1.023889 0.369440
C -1.540432 -0.598470 0.210455
H -0.771880 0.665124 -1.376277
H -1.622360 1.532137 -0.121156
H 0.581425 0.733522 1.399010
H 1.102296 1.708028 -0.091446
H -1.703737 -0.567747 1.293547
H -2.508174 -0.778488 -0.268401
H -0.891437 -1.454024 -0.004399
$end
$scan
stre 1 3 3.200000 3.201000 0.100000
$end
