
$comment
	potential surface scanner
$end

$rem
   JOBTYPE  PES_SCAN
   UNRESTRICTED TRUE
   SYM_IGNORE  TRUE
   GEOM_OPT_MAX_CYCLES 400
   SCF_MAX_CYCLES 400
   METHOD   B3LYP
   BASIS   6-31G**
   PDB_PRINT 2
   SCF_CONVERGENCE 6
   THRESH 14
   SCF_PRINT 1
$end
$molecule
0 1
Cl 2.092091 -1.043692 -0.307396
C -0.860061 0.617703 -0.307286
C 0.406143 0.957521 0.357980
C -1.526946 -0.674529 0.167581
H -0.729030 0.637729 -1.393766
H -1.513357 1.486679 -0.076070
H 0.545286 0.737962 1.411817
H 1.071185 1.697538 -0.073471
H -1.682775 -0.666524 1.251167
H -2.499247 -0.803831 -0.314861
H -0.887684 -1.524954 -0.080991
$end
$scan
stre 1 3 2.800000 2.801000 0.100000
$end
