
$comment
	potential surface scanner
$end

$rem
   JOBTYPE  PES_SCAN
   UNRESTRICTED TRUE
   SYM_IGNORE  TRUE
   GEOM_OPT_MAX_CYCLES 400
   SCF_MAX_CYCLES 400
   METHOD   B3LYP
   BASIS   6-31G**
   PDB_PRINT 2
   SCF_CONVERGENCE 6
   THRESH 14
   SCF_PRINT 1
$end
$molecule
0 1
Cl 1.905829 -0.749944 -0.278916
C -0.817706 0.577424 -0.318914
C 0.507098 0.837609 0.323770
C -1.537513 -0.680142 0.168719
H -0.701934 0.570037 -1.407398
H -1.422642 1.471457 -0.084592
H 0.568925 0.704413 1.400763
H 1.073480 1.687508 -0.044665
H -1.691017 -0.653357 1.252931
H -2.517852 -0.772537 -0.307369
H -0.951065 -1.570868 -0.069626
$end
$scan
stre 1 3 2.300000 2.301000 0.100000
$end
