
$comment
	potential surface scanner
$end

$rem
   JOBTYPE  PES_SCAN
   UNRESTRICTED TRUE
   SYM_IGNORE  TRUE
   GEOM_OPT_MAX_CYCLES 400
   SCF_MAX_CYCLES 400
   METHOD   B3LYP
   BASIS   6-31G**
   PDB_PRINT 2
   SCF_CONVERGENCE 6
   THRESH 14
   SCF_PRINT 1
$end
$molecule
0 3
Cl 2.219599 -0.144846 -0.750740
C -0.752830 0.485290 -0.329514
C 0.561048 0.472740 0.379657
C -1.725897 -0.545682 0.272101
H -0.597873 0.274739 -1.395599
H -1.223990 1.483389 -0.281459
H 0.535380 0.581746 1.472000
H 1.317893 1.231632 -0.000819
H -1.917628 -0.339328 1.330230
H -2.684036 -0.521239 -0.255601
H -1.316064 -1.556843 0.194437
$end
$scan
stre 1 3 2.000000 2.001000 0.100000
$end
