
$comment
	potential surface scanner
$end

$rem
   JOBTYPE  PES_SCAN
   UNRESTRICTED TRUE
   SYM_IGNORE  TRUE
   GEOM_OPT_MAX_CYCLES 400
   SCF_MAX_CYCLES 400
   METHOD   B3LYP
   BASIS   6-31G**
   PDB_PRINT 2
   SCF_CONVERGENCE 6
   THRESH 14
   SCF_PRINT 1
$end
$molecule
0 3
Cl 2.139595 -3.330572 -0.800641
C -0.978254 0.844482 -0.259539
C 0.124780 1.509833 0.492031
C -1.238095 -0.603646 0.181198
H -0.765172 0.874189 -1.336751
H -1.915590 1.420008 -0.139933
H 0.287519 1.288241 1.542814
H 0.675504 2.340765 0.063507
H -1.472166 -0.650102 1.250635
H -2.082547 -1.038294 -0.363400
H -0.359978 -1.233305 0.004780
$end
$scan
stre 1 3 5.300000 5.301000 0.100000
$end
