
$comment
	potential surface scanner
$end

$rem
   JOBTYPE  PES_SCAN
   UNRESTRICTED TRUE
   SYM_IGNORE  TRUE
   GEOM_OPT_MAX_CYCLES 400
   SCF_MAX_CYCLES 400
   METHOD   B3LYP
   BASIS   6-31G**
   PDB_PRINT 2
   SCF_CONVERGENCE 6
   THRESH 14
   SCF_PRINT 1
$end
$molecule
0 3
Cl 2.349607 -2.596196 -0.514114
C -0.982776 0.812766 -0.256785
C 0.267454 1.285898 0.404571
C -1.400838 -0.601758 0.166429
H -0.865904 0.856096 -1.348621
H -1.814277 1.507216 -0.033285
H 0.513580 0.965306 1.412698
H 0.863325 2.082312 -0.028949
H -1.552942 -0.656387 1.250298
H -2.334086 -0.903751 -0.319218
H -0.627542 -1.329900 -0.098325
$end
$scan
stre 1 3 4.400000 4.401000 0.100000
$end
