
$comment
	potential surface scanner
$end

$rem
   JOBTYPE  PES_SCAN
   UNRESTRICTED TRUE
   SYM_IGNORE  TRUE
   GEOM_OPT_MAX_CYCLES 400
   SCF_MAX_CYCLES 400
   METHOD   B3LYP
   BASIS   6-31G**
   PDB_PRINT 2
   SCF_CONVERGENCE 6
   THRESH 14
   SCF_PRINT 1
$end
$molecule
0 3
Cl 2.706094 0.233008 -0.903535
C -0.799464 0.452837 -0.315404
C 0.485474 0.465621 0.428657
C -1.816129 -0.525005 0.303584
H -0.613907 0.189063 -1.363935
H -1.241408 1.464838 -0.334250
H 0.549033 0.491523 1.514983
H 1.370916 0.960066 -0.070170
H -2.023786 -0.270696 1.347986
H -2.761535 -0.488448 -0.246312
H -1.439688 -1.551209 0.273087
$end
$scan
stre 1 3 2.500000 2.501000 0.100000
$end
