
$comment
	potential surface scanner
$end

$rem
   JOBTYPE  PES_SCAN
   UNRESTRICTED TRUE
   SYM_IGNORE  TRUE
   GEOM_OPT_MAX_CYCLES 400
   SCF_MAX_CYCLES 400
   METHOD   B3LYP
   BASIS   6-31G**
   PDB_PRINT 2
   SCF_CONVERGENCE 6
   THRESH 14
   SCF_PRINT 1
$end
$molecule
0 3
Cl 2.293826 -0.083725 -0.807169
C -0.758975 0.479561 -0.324052
C 0.543119 0.480721 0.399655
C -1.741548 -0.543040 0.276511
H -0.590198 0.258943 -1.385500
H -1.227640 1.479569 -0.291845
H 0.532285 0.570206 1.491120
H 1.337713 1.181539 -0.004675
H -1.945219 -0.325636 1.330164
H -2.693388 -0.520439 -0.262518
H -1.334375 -1.556101 0.213003
$end
$scan
stre 1 3 2.100000 2.101000 0.100000
$end
