
$comment
	potential surface scanner
$end

$rem
   JOBTYPE  PES_SCAN
   UNRESTRICTED TRUE
   SYM_IGNORE  TRUE
   GEOM_OPT_MAX_CYCLES 400
   SCF_MAX_CYCLES 400
   METHOD   B3LYP
   BASIS   6-31G**
   PDB_PRINT 2
   SCF_CONVERGENCE 6
   THRESH 14
   SCF_PRINT 1
$end
$molecule
0 3
Cl 2.319059 -1.099540 -0.375848
C -0.882599 0.657301 -0.302205
C 0.459804 0.877878 0.311896
C -1.601760 -0.593410 0.220955
H -0.787644 0.599057 -1.395960
H -1.530180 1.536219 -0.122538
H 0.639990 0.595025 1.345674
H 1.153600 1.592364 -0.122025
H -1.723726 -0.547866 1.309074
H -2.597678 -0.695703 -0.221841
H -1.033265 -1.499727 -0.012492
$end
$scan
stre 1 3 2.700000 2.701000 0.100000
$end
