
$comment
	potential surface scanner
$end

$rem
   JOBTYPE  PES_SCAN
   UNRESTRICTED TRUE
   SYM_IGNORE  TRUE
   GEOM_OPT_MAX_CYCLES 400
   SCF_MAX_CYCLES 400
   METHOD   B3LYP
   BASIS   6-31G**
   PDB_PRINT 2
   SCF_CONVERGENCE 6
   THRESH 14
   SCF_PRINT 1
$end
$molecule
0 3
Cl 2.374883 -1.784605 -0.493721
C -0.928689 0.733435 -0.278817
C 0.368550 1.076051 0.373041
C -1.525701 -0.596364 0.202390
H -0.802107 0.712103 -1.370241
H -1.667242 1.536450 -0.096023
H 0.562551 0.783468 1.400691
H 1.062964 1.769198 -0.090049
H -1.682824 -0.583888 1.286873
H -2.491747 -0.793834 -0.273020
H -0.855038 -1.430415 -0.026429
$end
$scan
stre 1 3 3.500000 3.501000 0.100000
$end
