
$comment
	potential surface scanner
$end

$rem
   JOBTYPE  PES_SCAN
   UNRESTRICTED TRUE
   SYM_IGNORE  TRUE
   GEOM_OPT_MAX_CYCLES 400
   SCF_MAX_CYCLES 400
   METHOD   B3LYP
   BASIS   6-31G**
   PDB_PRINT 2
   SCF_CONVERGENCE 6
   THRESH 14
   SCF_PRINT 1
$end
$molecule
0 1
Cl 1.823066 -0.659274 -0.239328
C -0.802261 0.567030 -0.322047
C 0.553564 0.787790 0.303230
C -1.535302 -0.683474 0.165369
H -0.700729 0.556150 -1.412421
H -1.390497 1.465339 -0.076206
H 0.568794 0.712258 1.389624
H 1.068004 1.681891 -0.042161
H -1.674072 -0.662848 1.251954
H -2.523780 -0.757881 -0.297454
H -0.971186 -1.585381 -0.085858
$end
$scan
stre 1 3 2.100000 2.101000 0.100000
$end
