
$comment
	potential surface scanner
$end

$rem
   JOBTYPE  PES_SCAN
   UNRESTRICTED TRUE
   SYM_IGNORE  TRUE
   GEOM_OPT_MAX_CYCLES 400
   SCF_MAX_CYCLES 400
   METHOD   B3LYP
   BASIS   6-31G**
   PDB_PRINT 2
   SCF_CONVERGENCE 6
   THRESH 14
   SCF_PRINT 1
$end
$molecule
0 1
Cl 1.749233 -0.565190 -0.201979
C -0.784959 0.555479 -0.324704
C 0.602459 0.734790 0.282751
C -1.533870 -0.686265 0.162898
H -0.697434 0.542803 -1.417143
H -1.356257 1.458724 -0.068493
H 0.564140 0.718367 1.374683
H 1.055427 1.674388 -0.038250
H -1.657928 -0.670849 1.251649
H -2.530278 -0.740109 -0.286101
H -0.994934 -1.600537 -0.100610
$end
$scan
stre 1 3 1.900000 1.901000 0.100000
$end
