
$comment
	potential surface scanner
$end

$rem
   JOBTYPE  PES_SCAN
   UNRESTRICTED TRUE
   SYM_IGNORE  TRUE
   GEOM_OPT_MAX_CYCLES 400
   SCF_MAX_CYCLES 400
   METHOD   B3LYP
   BASIS   6-31G**
   PDB_PRINT 2
   SCF_CONVERGENCE 6
   THRESH 14
   SCF_PRINT 1
$end
$molecule
0 1
Cl 1.945429 -0.800420 -0.292801
C -0.825685 0.584015 -0.316764
C 0.484995 0.862608 0.332873
C -1.537338 -0.678537 0.169917
H -0.704001 0.579484 -1.404500
H -1.439819 1.474906 -0.087358
H 0.567183 0.703553 1.404276
H 1.074937 1.689909 -0.047899
H -1.695508 -0.651822 1.253329
H -2.514469 -0.779360 -0.310732
H -0.940120 -1.562736 -0.065638
$end
$scan
stre 1 3 2.400000 2.401000 0.100000
$end
