
$comment
	potential surface scanner
$end

$rem
   JOBTYPE  PES_SCAN
   UNRESTRICTED TRUE
   SYM_IGNORE  TRUE
   GEOM_OPT_MAX_CYCLES 400
   SCF_MAX_CYCLES 400
   METHOD   B3LYP
   BASIS   6-31G**
   PDB_PRINT 2
   SCF_CONVERGENCE 6
   THRESH 14
   SCF_PRINT 1
$end
$molecule
0 3
Cl 2.327388 -3.100966 -0.613084
C -1.000223 0.848339 -0.251726
C 0.195963 1.411443 0.438196
C -1.323809 -0.594037 0.161688
H -0.861484 0.902810 -1.340546
H -1.885565 1.479570 -0.048080
H 0.439711 1.110467 1.452971
H 0.738972 2.253066 0.020592
H -1.492598 -0.661535 1.242403
H -2.225095 -0.960407 -0.340192
H -0.497663 -1.267149 -0.087521
$end
$scan
stre 1 3 5.000000 5.001000 0.100000
$end
