
$comment
	potential surface scanner
$end

$rem
   JOBTYPE  PES_SCAN
   UNRESTRICTED TRUE
   SYM_IGNORE  TRUE
   GEOM_OPT_MAX_CYCLES 400
   SCF_MAX_CYCLES 400
   METHOD   B3LYP
   BASIS   6-31G**
   PDB_PRINT 2
   SCF_CONVERGENCE 6
   THRESH 14
   SCF_PRINT 1
$end
$molecule
0 3
Cl 2.415716 -1.940137 -0.527161
C -0.937716 0.746283 -0.276222
C 0.347569 1.114515 0.384909
C -1.512269 -0.595150 0.200292
H -0.803138 0.728257 -1.366677
H -1.692829 1.534689 -0.097609
H 0.538146 0.828671 1.415250
H 1.033810 1.817471 -0.075594
H -1.668995 -0.588881 1.284900
H -2.475503 -0.805750 -0.275207
H -0.829192 -1.418368 -0.032184
$end
$scan
stre 1 3 3.700000 3.701000 0.100000
$end
