
$comment
	potential surface scanner
$end

$rem
   JOBTYPE  PES_SCAN
   UNRESTRICTED TRUE
   SYM_IGNORE  TRUE
   GEOM_OPT_MAX_CYCLES 400
   SCF_MAX_CYCLES 400
   METHOD   B3LYP
   BASIS   6-31G**
   PDB_PRINT 2
   SCF_CONVERGENCE 6
   THRESH 14
   SCF_PRINT 1
$end
$molecule
0 3
Cl 2.345949 -2.678600 -0.536719
C -0.985092 0.818171 -0.256571
C 0.255113 1.307502 0.411644
C -1.388235 -0.600844 0.166688
H -0.862512 0.861200 -1.347790
H -1.826313 1.503196 -0.039844
H 0.498638 0.991014 1.421695
H 0.843964 2.110685 -0.018959
H -1.544992 -0.655281 1.249870
H -2.315691 -0.914893 -0.322405
H -0.605229 -1.320549 -0.092907
$end
$scan
stre 1 3 4.500000 4.501000 0.100000
$end
