
$comment
	potential surface scanner
$end

$rem
   JOBTYPE  PES_SCAN
   UNRESTRICTED TRUE
   SYM_IGNORE  TRUE
   GEOM_OPT_MAX_CYCLES 400
   SCF_MAX_CYCLES 400
   METHOD   B3LYP
   BASIS   6-31G**
   PDB_PRINT 2
   SCF_CONVERGENCE 6
   THRESH 14
   SCF_PRINT 1
$end
$molecule
0 1
Cl 1.987322 -0.852047 -0.304021
C -0.833461 0.590423 -0.314592
C 0.463773 0.886487 0.341190
C -1.537232 -0.677158 0.170647
H -0.706583 0.589768 -1.401679
H -1.456445 1.477929 -0.088563
H 0.564096 0.706063 1.407217
H 1.074999 1.691746 -0.051988
H -1.697851 -0.651922 1.253607
H -2.512193 -0.784550 -0.312686
H -0.930820 -1.555139 -0.064428
$end
$scan
stre 1 3 2.500000 2.501000 0.100000
$end
