
$comment
	potential surface scanner
$end

$rem
   JOBTYPE  PES_SCAN
   UNRESTRICTED TRUE
   SYM_IGNORE  TRUE
   GEOM_OPT_MAX_CYCLES 400
   SCF_MAX_CYCLES 400
   METHOD   B3LYP
   BASIS   6-31G**
   PDB_PRINT 2
   SCF_CONVERGENCE 6
   THRESH 14
   SCF_PRINT 1
$end
$molecule
0 3
Cl 2.411462 -2.488154 -0.509207
C -0.978522 0.803812 -0.259594
C 0.281486 1.253156 0.399526
C -1.429845 -0.598813 0.171708
H -0.861936 0.839068 -1.351549
H -1.793413 1.519613 -0.040055
H 0.519018 0.933952 1.409998
H 0.897440 2.030935 -0.039808
H -1.573695 -0.646286 1.256844
H -2.376351 -0.876540 -0.303099
H -0.680042 -1.349141 -0.100065
$end
$scan
stre 1 3 4.300000 4.301000 0.100000
$end
