
$comment
	potential surface scanner
$end

$rem
   JOBTYPE  PES_SCAN
   UNRESTRICTED TRUE
   SYM_IGNORE  TRUE
   GEOM_OPT_MAX_CYCLES 400
   SCF_MAX_CYCLES 400
   METHOD   B3LYP
   BASIS   6-31G**
   PDB_PRINT 2
   SCF_CONVERGENCE 6
   THRESH 14
   SCF_PRINT 1
$end
$molecule
0 3
Cl 2.297435 -3.026744 -0.589988
C -0.998527 0.844035 -0.251433
C 0.205223 1.397695 0.433237
C -1.326690 -0.597934 0.159646
H -0.865227 0.900230 -1.340867
H -1.878936 1.479659 -0.041005
H 0.454961 1.089969 1.444533
H 0.753391 2.234761 0.013436
H -1.495866 -0.666120 1.240270
H -2.228359 -0.961009 -0.343657
H -0.501808 -1.272940 -0.089472
$end
$scan
stre 1 3 4.900000 4.901000 0.100000
$end
