
$comment
	potential surface scanner
$end

$rem
   JOBTYPE  PES_SCAN
   UNRESTRICTED TRUE
   SYM_IGNORE  TRUE
   GEOM_OPT_MAX_CYCLES 400
   SCF_MAX_CYCLES 400
   METHOD   B3LYP
   BASIS   6-31G**
   PDB_PRINT 2
   SCF_CONVERGENCE 6
   THRESH 14
   SCF_PRINT 1
$end
$molecule
0 3
Cl 2.479630 -1.157359 -0.448116
C -0.897831 0.664626 -0.298308
C 0.435078 0.895106 0.331112
C -1.620016 -0.582228 0.229197
H -0.787095 0.594981 -1.389941
H -1.549248 1.544253 -0.137689
H 0.621218 0.581736 1.354331
H 1.144689 1.588022 -0.109552
H -1.767513 -0.519358 1.313252
H -2.604405 -0.700456 -0.234873
H -1.038905 -1.487725 0.025278
$end
$scan
stre 1 3 2.900000 2.901000 0.100000
$end
