
$comment
	potential surface scanner
$end

$rem
   JOBTYPE  PES_SCAN
   UNRESTRICTED TRUE
   SYM_IGNORE  TRUE
   GEOM_OPT_MAX_CYCLES 400
   SCF_MAX_CYCLES 400
   METHOD   B3LYP
   BASIS   6-31G**
   PDB_PRINT 2
   SCF_CONVERGENCE 6
   THRESH 14
   SCF_PRINT 1
$end
$molecule
0 3
Cl 2.250146 -2.877365 -0.548123
C -0.993851 0.834301 -0.251736
C 0.226106 1.365543 0.421924
C -1.336360 -0.604602 0.157274
H -0.871458 0.893034 -1.342329
H -1.862456 1.481830 -0.029070
H 0.482098 1.048984 1.428922
H 0.782805 2.195800 -0.000138
H -1.506185 -0.673014 1.237788
H -2.240301 -0.959911 -0.347368
H -0.514946 -1.282999 -0.092442
$end
$scan
stre 1 3 4.700000 4.701000 0.100000
$end
