
$comment
	potential surface scanner
$end

$rem
   JOBTYPE  PES_SCAN
   UNRESTRICTED TRUE
   SYM_IGNORE  TRUE
   GEOM_OPT_MAX_CYCLES 400
   SCF_MAX_CYCLES 400
   METHOD   B3LYP
   BASIS   6-31G**
   PDB_PRINT 2
   SCF_CONVERGENCE 6
   THRESH 14
   SCF_PRINT 1
$end
$molecule
0 3
Cl 2.479278 -2.255609 -0.587974
C -0.955217 0.772384 -0.271093
C 0.302620 1.195047 0.409592
C -1.480080 -0.592930 0.195011
H -0.804264 0.762242 -1.359465
H -1.745745 1.527467 -0.102138
H 0.489238 0.919490 1.443494
H 0.971279 1.918052 -0.045667
H -1.631314 -0.602401 1.280391
H -2.438274 -0.830751 -0.277824
H -0.771921 -1.391387 -0.049628
$end
$scan
stre 1 3 4.100000 4.101000 0.100000
$end
