
$comment
	potential surface scanner
$end

$rem
   JOBTYPE  PES_SCAN
   UNRESTRICTED TRUE
   SYM_IGNORE  TRUE
   GEOM_OPT_MAX_CYCLES 400
   SCF_MAX_CYCLES 400
   METHOD   B3LYP
   BASIS   6-31G**
   PDB_PRINT 2
   SCF_CONVERGENCE 6
   THRESH 14
   SCF_PRINT 1
$end
$molecule
0 1
Cl 2.124328 -1.111409 -0.309823
C -0.869119 0.627877 -0.304818
C 0.388728 0.980376 0.362582
C -1.522144 -0.673199 0.166761
H -0.738392 0.655227 -1.391235
H -1.533714 1.488853 -0.071056
H 0.538595 0.748810 1.412105
H 1.068555 1.700362 -0.078884
H -1.679995 -0.668997 1.249972
H -2.491466 -0.812809 -0.318528
H -0.869770 -1.513490 -0.082373
$end
$scan
stre 1 3 2.900000 2.901000 0.100000
$end
