
$comment
	potential surface scanner
$end

$rem
   JOBTYPE  PES_SCAN
   UNRESTRICTED TRUE
   SYM_IGNORE  TRUE
   GEOM_OPT_MAX_CYCLES 400
   SCF_MAX_CYCLES 400
   METHOD   B3LYP
   BASIS   6-31G**
   PDB_PRINT 2
   SCF_CONVERGENCE 6
   THRESH 14
   SCF_PRINT 1
$end
$molecule
0 3
Cl 2.618517 0.102542 0.409203
C -0.870437 0.536764 -0.368452
C 0.674103 0.352780 0.013432
C -1.738919 -0.527811 0.295136
H -0.932146 0.481454 -1.461373
H -1.199570 1.545499 -0.077802
H 0.626617 0.256379 1.095464
H 1.135706 1.070036 -0.663865
H -1.697446 -0.452805 1.387361
H -2.785473 -0.409353 -0.007389
H -1.415352 -1.533887 0.012979
$end
$scan
stre 1 3 1.900000 1.901000 0.100000
$end
