
$comment
	potential surface scanner
$end

$rem
   JOBTYPE  PES_SCAN
   UNRESTRICTED TRUE
   SYM_IGNORE  TRUE
   GEOM_OPT_MAX_CYCLES 400
   SCF_MAX_CYCLES 400
   METHOD   B3LYP
   BASIS   6-31G**
   PDB_PRINT 2
   SCF_CONVERGENCE 6
   THRESH 14
   SCF_PRINT 1
$end
$molecule
0 3
Cl 2.468263 -3.104028 -0.778053
C -0.987527 0.835720 -0.262702
C 0.189313 1.404240 0.455605
C -1.366369 -0.576639 0.202991
H -0.796292 0.833210 -1.345040
H -1.865283 1.495796 -0.132332
H 0.389799 1.134209 1.488357
H 0.770154 2.213806 0.026096
H -1.594047 -0.585885 1.274947
H -2.247440 -0.948656 -0.329355
H -0.544974 -1.280173 0.034188
$end
$scan
stre 1 3 5.100000 5.101000 0.100000
$end
