
$comment
	potential surface scanner
$end

$rem
   JOBTYPE  PES_SCAN
   UNRESTRICTED TRUE
   SYM_IGNORE  TRUE
   GEOM_OPT_MAX_CYCLES 400
   SCF_MAX_CYCLES 400
   METHOD   B3LYP
   BASIS   6-31G**
   PDB_PRINT 2
   SCF_CONVERGENCE 6
   THRESH 14
   SCF_PRINT 1
$end
$molecule
0 1
Cl 1.863714 -0.704631 -0.258897
C -0.810110 0.572181 -0.320529
C 0.530033 0.813092 0.313652
C -1.536387 -0.681947 0.166894
H -0.701478 0.563173 -1.409947
H -1.406778 1.468242 -0.080188
H 0.569403 0.708632 1.395787
H 1.071572 1.684680 -0.043906
H -1.682535 -0.658196 1.252319
H -2.520856 -0.765371 -0.302589
H -0.960975 -1.578255 -0.077894
$end
$scan
stre 1 3 2.200000 2.201000 0.100000
$end
