
$comment
	potential surface scanner
$end

$rem
   JOBTYPE  PES_SCAN
   UNRESTRICTED TRUE
   SYM_IGNORE  TRUE
   GEOM_OPT_MAX_CYCLES 400
   SCF_MAX_CYCLES 400
   METHOD   B3LYP
   BASIS   6-31G**
   PDB_PRINT 2
   SCF_CONVERGENCE 6
   THRESH 14
   SCF_PRINT 1
$end
$molecule
0 3
Cl 2.500672 -3.171952 -0.808428
C -0.988989 0.839548 -0.263212
C 0.177277 1.418754 0.463283
C -1.364956 -0.572581 0.206504
H -0.787732 0.832517 -1.343578
H -1.871620 1.495979 -0.144895
H 0.371830 1.153468 1.498286
H 0.758792 2.227902 0.033789
H -1.592744 -0.579722 1.278364
H -2.245531 -0.948570 -0.324128
H -0.541403 -1.273744 0.038717
$end
$scan
stre 1 3 5.200000 5.201000 0.100000
$end
