
$comment
	potential surface scanner
$end

$rem
   JOBTYPE  PES_SCAN
   UNRESTRICTED TRUE
   SYM_IGNORE  TRUE
   GEOM_OPT_MAX_CYCLES 400
   SCF_MAX_CYCLES 400
   METHOD   B3LYP
   BASIS   6-31G**
   PDB_PRINT 2
   SCF_CONVERGENCE 6
   THRESH 14
   SCF_PRINT 1
$end
$molecule
0 3
Cl 2.457723 -2.095290 -0.556552
C -0.947162 0.759358 -0.273463
C 0.326168 1.152625 0.396086
C -1.498707 -0.593548 0.197828
H -0.805991 0.745880 -1.363134
H -1.718669 1.532417 -0.097839
H 0.515234 0.871726 1.428091
H 1.003957 1.865172 -0.062201
H -1.653602 -0.594690 1.282717
H -2.459547 -0.816627 -0.276876
H -0.803804 -1.405421 -0.039958
$end
$scan
stre 1 3 3.900000 3.901000 0.100000
$end
