
$comment
	potential surface scanner
$end

$rem
   JOBTYPE  PES_SCAN
   UNRESTRICTED TRUE
   SYM_IGNORE  TRUE
   GEOM_OPT_MAX_CYCLES 400
   SCF_MAX_CYCLES 400
   METHOD   B3LYP
   BASIS   6-31G**
   PDB_PRINT 2
   SCF_CONVERGENCE 6
   THRESH 14
   SCF_PRINT 1
$end
$molecule
0 3
Cl 2.270795 -2.952556 -0.568894
C -0.996459 0.839446 -0.251548
C 0.215243 1.382330 0.427838
C -1.330781 -0.601598 0.158197
H -0.868118 0.896786 -1.341533
H -1.871242 1.480825 -0.035379
H 0.468208 1.069870 1.436881
H 0.767966 2.215816 0.006927
H -1.499730 -0.669956 1.238837
H -2.233352 -0.961550 -0.345568
H -0.506933 -1.277812 -0.091057
$end
$scan
stre 1 3 4.800000 4.801000 0.100000
$end
