
$comment
	potential surface scanner
$end

$rem
   JOBTYPE  PES_SCAN
   UNRESTRICTED TRUE
   SYM_IGNORE  TRUE
   GEOM_OPT_MAX_CYCLES 400
   SCF_MAX_CYCLES 400
   METHOD   B3LYP
   BASIS   6-31G**
   PDB_PRINT 2
   SCF_CONVERGENCE 6
   THRESH 14
   SCF_PRINT 1
$end
$molecule
0 3
Cl 2.488090 -2.334466 -0.608816
C -0.958748 0.778429 -0.270639
C 0.289899 1.215760 0.417758
C -1.470828 -0.591997 0.194540
H -0.799553 0.767122 -1.357849
H -1.758872 1.524875 -0.109390
H 0.472132 0.944317 1.453570
H 0.955163 1.943397 -0.035022
H -1.618317 -0.605127 1.280414
H -2.427892 -0.837962 -0.276171
H -0.755472 -1.382745 -0.053696
$end
$scan
stre 1 3 4.200000 4.201000 0.100000
$end
