
$comment
	potential surface scanner
$end

$rem
   JOBTYPE  PES_SCAN
   UNRESTRICTED TRUE
   SYM_IGNORE  TRUE
   GEOM_OPT_MAX_CYCLES 400
   SCF_MAX_CYCLES 400
   METHOD   B3LYP
   BASIS   6-31G**
   PDB_PRINT 2
   SCF_CONVERGENCE 6
   THRESH 14
   SCF_PRINT 1
$end
$molecule
0 3
Cl 2.318905 -2.778189 -0.533248
C -0.992079 0.828045 -0.252510
C 0.244231 1.331746 0.412352
C -1.367270 -0.601822 0.160702
H -0.877226 0.883055 -1.344036
H -1.843165 1.497039 -0.024430
H 0.497135 1.012630 1.419316
H 0.815904 2.149837 -0.013429
H -1.533455 -0.663911 1.242071
H -2.282472 -0.935117 -0.338581
H -0.564909 -1.301713 -0.093504
$end
$scan
stre 1 3 4.600000 4.601000 0.100000
$end
