
$comment
	potential surface scanner
$end

$rem
   JOBTYPE  PES_SCAN
   UNRESTRICTED TRUE
   SYM_IGNORE  TRUE
   GEOM_OPT_MAX_CYCLES 400
   SCF_MAX_CYCLES 400
   METHOD   B3LYP
   BASIS   6-31G**
   PDB_PRINT 2
   SCF_CONVERGENCE 6
   THRESH 14
   SCF_PRINT 1
$end
$molecule
0 3
Cl 2.388951 -1.150959 -0.365062
C -0.894163 0.665723 -0.300433
C 0.447112 0.893525 0.312688
C -1.604999 -0.590812 0.219864
H -0.799650 0.612200 -1.394421
H -1.546813 1.540224 -0.117393
H 0.637603 0.594507 1.339468
H 1.145611 1.596712 -0.129948
H -1.718346 -0.552657 1.309223
H -2.604193 -0.693175 -0.215470
H -1.035512 -1.493691 -0.023825
$end
$scan
stre 1 3 2.800000 2.801000 0.100000
$end
