
$comment
	potential surface scanner
$end

$rem
   JOBTYPE  PES_SCAN
   UNRESTRICTED TRUE
   SYM_IGNORE  TRUE
   GEOM_OPT_MAX_CYCLES 400
   SCF_MAX_CYCLES 400
   METHOD   B3LYP
   BASIS   6-31G**
   PDB_PRINT 2
   SCF_CONVERGENCE 6
   THRESH 14
   SCF_PRINT 1
$end
$molecule
0 1
Cl 2.071823 -0.961585 -0.324733
C -0.849667 0.605088 -0.310298
C 0.424316 0.931122 0.355989
C -1.535589 -0.673570 0.172025
H -0.713246 0.612520 -1.396227
H -1.490776 1.484400 -0.090498
H 0.554544 0.712211 1.411035
H 1.070609 1.697017 -0.058301
H -1.700266 -0.652004 1.254220
H -2.506158 -0.795416 -0.316090
H -0.909987 -1.538183 -0.062418
$end
$scan
stre 1 3 2.700000 2.701000 0.100000
$end
