
$comment
	potential surface scanner
$end

$rem
   JOBTYPE  PES_SCAN
   UNRESTRICTED TRUE
   SYM_IGNORE  TRUE
   GEOM_OPT_MAX_CYCLES 400
   SCF_MAX_CYCLES 400
   METHOD   B3LYP
   BASIS   6-31G**
   PDB_PRINT 2
   SCF_CONVERGENCE 6
   THRESH 14
   SCF_PRINT 1
$end
$molecule
0 3
Cl 2.139929 -3.331394 -0.799881
C -0.977635 0.844239 -0.259790
C 0.125339 1.509313 0.491979
C -1.238418 -0.603957 0.180478
H -0.765230 0.875917 -1.337312
H -1.914106 1.420202 -0.138360
H 0.286973 1.289857 1.543662
H 0.674483 2.340908 0.062886
H -1.471510 -0.650797 1.250290
H -2.083592 -1.039341 -0.362946
H -0.360637 -1.233347 0.003695
$end
$scan
stre 1 3 5.400000 5.401000 0.100000
$end
