
$comment
	potential surface scanner
$end

$rem
   JOBTYPE  PES_SCAN
   UNRESTRICTED TRUE
   SYM_IGNORE  TRUE
   GEOM_OPT_MAX_CYCLES 400
   SCF_MAX_CYCLES 400
   METHOD   B3LYP
   BASIS   6-31G**
   PDB_PRINT 2
   SCF_CONVERGENCE 6
   THRESH 14
   SCF_PRINT 1
$end
$molecule
0 3
Cl 2.357952 -1.706131 -0.475583
C -0.924356 0.726844 -0.280145
C 0.379210 1.055320 0.366420
C -1.533043 -0.596797 0.203447
H -0.802605 0.704234 -1.372079
H -1.653456 1.538004 -0.094702
H 0.574892 0.759706 1.392774
H 1.076487 1.745156 -0.097357
H -1.689586 -0.581501 1.287944
H -2.501007 -0.787140 -0.270987
H -0.868888 -1.436096 -0.025037
$end
$scan
stre 1 3 3.400000 3.401000 0.100000
$end
