
$comment
	potential surface scanner
$end

$rem
   JOBTYPE  PES_SCAN
   UNRESTRICTED TRUE
   SYM_IGNORE  TRUE
   GEOM_OPT_MAX_CYCLES 400
   SCF_MAX_CYCLES 400
   METHOD   B3LYP
   BASIS   6-31G**
   PDB_PRINT 2
   SCF_CONVERGENCE 6
   THRESH 14
   SCF_PRINT 1
$end
$molecule
0 3
Cl 2.437364 -2.017497 -0.542433
C -0.942269 0.752628 -0.274908
C 0.337045 1.133419 0.390514
C -1.505666 -0.594329 0.199164
H -0.804406 0.736858 -1.364974
H -1.705579 1.533453 -0.097774
H 0.526655 0.850335 1.421816
H 1.018905 1.841416 -0.068794
H -1.661908 -0.591539 1.283865
H -2.467678 -0.811028 -0.276128
H -0.816864 -1.412115 -0.035650
$end
$scan
stre 1 3 3.800000 3.801000 0.100000
$end
