
$comment
	potential surface scanner
$end

$rem
   JOBTYPE  PES_SCAN
   UNRESTRICTED TRUE
   SYM_IGNORE  TRUE
   GEOM_OPT_MAX_CYCLES 400
   SCF_MAX_CYCLES 400
   METHOD   B3LYP
   BASIS   6-31G**
   PDB_PRINT 2
   SCF_CONVERGENCE 6
   THRESH 14
   SCF_PRINT 1
$end
$molecule
0 1
Cl 1.787534 -0.610432 -0.222202
C -0.793585 0.560751 -0.323531
C 0.577706 0.760973 0.293127
C -1.535176 -0.684895 0.164162
H -0.698602 0.548586 -1.414862
H -1.373022 1.461683 -0.072489
H 0.567413 0.714948 1.382839
H 1.061923 1.678384 -0.039562
H -1.667152 -0.666091 1.251776
H -2.527532 -0.748832 -0.292189
H -0.983907 -1.593474 -0.092367
$end
$scan
stre 1 3 2.000000 2.001000 0.100000
$end
