
$comment
	potential surface scanner
$end

$rem
   JOBTYPE  PES_SCAN
   UNRESTRICTED TRUE
   SYM_IGNORE  TRUE
   GEOM_OPT_MAX_CYCLES 400
   SCF_MAX_CYCLES 400
   METHOD   B3LYP
   BASIS   6-31G**
   PDB_PRINT 2
   SCF_CONVERGENCE 6
   THRESH 14
   SCF_PRINT 1
$end
$molecule
0 3
Cl 2.241430 -1.053835 -0.383867
C -0.869781 0.648289 -0.305259
C 0.473348 0.864850 0.310778
C -1.596491 -0.596140 0.221893
H -0.772388 0.583292 -1.398604
H -1.513289 1.531282 -0.132080
H 0.642190 0.592918 1.350166
H 1.156315 1.598484 -0.108939
H -1.721098 -0.545064 1.309512
H -2.591890 -0.695557 -0.222769
H -1.032745 -1.506921 -0.006140
$end
$scan
stre 1 3 2.600000 2.601000 0.100000
$end
