
$comment
	potential surface scanner
$end

$rem
   JOBTYPE  PES_SCAN
   UNRESTRICTED TRUE
   SYM_IGNORE  TRUE
   GEOM_OPT_MAX_CYCLES 400
   SCF_MAX_CYCLES 400
   METHOD   B3LYP
   BASIS   6-31G**
   PDB_PRINT 2
   SCF_CONVERGENCE 6
   THRESH 14
   SCF_PRINT 1
$end
$molecule
0 3
Cl 2.340226 -1.610076 -0.492242
C -0.914929 0.715179 -0.283055
C 0.387365 1.036287 0.369789
C -1.542833 -0.595943 0.209337
H -0.785893 0.680014 -1.373800
H -1.636402 1.536220 -0.111454
H 0.577165 0.740849 1.397143
H 1.096228 1.712746 -0.095908
H -1.707098 -0.568511 1.292409
H -2.509715 -0.779127 -0.270233
H -0.888514 -1.446039 -0.007292
$end
$scan
stre 1 3 3.300000 3.301000 0.100000
$end
