
$comment
	potential surface scanner
$end

$rem
   JOBTYPE  PES_SCAN
   UNRESTRICTED TRUE
   SYM_IGNORE  TRUE
   GEOM_OPT_MAX_CYCLES 400
   SCF_MAX_CYCLES 400
   METHOD   B3LYP
   BASIS   6-31G**
   PDB_PRINT 2
   SCF_CONVERGENCE 6
   THRESH 14
   SCF_PRINT 1
$end
$molecule
0 3
Cl 2.472201 -2.174989 -0.570468
C -0.951712 0.766142 -0.272076
C 0.314810 1.173108 0.402112
C -1.490234 -0.593092 0.196186
H -0.806749 0.755124 -1.361291
H -1.732284 1.530487 -0.098490
H 0.503545 0.894108 1.434682
H 0.987956 1.890864 -0.054880
H -1.643306 -0.598573 1.281331
H -2.449847 -0.823105 -0.277647
H -0.788779 -1.398472 -0.044760
$end
$scan
stre 1 3 4.000000 4.001000 0.100000
$end
