
$comment
	potential surface scanner
$end

$rem
   JOBTYPE  PES_SCAN
   UNRESTRICTED TRUE
   SYM_IGNORE  TRUE
   GEOM_OPT_MAX_CYCLES 400
   SCF_MAX_CYCLES 400
   METHOD   B3LYP
   BASIS   6-31G**
   PDB_PRINT 2
   SCF_CONVERGENCE 6
   THRESH 14
   SCF_PRINT 1
$end
$molecule
0 3
Cl 2.178567 -1.406395 -0.483130
C -0.886862 0.690184 -0.291897
C 0.415300 0.996768 0.368751
C -1.542218 -0.602232 0.213281
H -0.747957 0.635160 -1.380466
H -1.596140 1.525281 -0.138825
H 0.590289 0.712464 1.401533
H 1.126380 1.676025 -0.090006
H -1.702413 -0.564052 1.296552
H -2.512698 -0.772350 -0.263582
H -0.906645 -1.469255 0.002480
$end
$scan
stre 1 3 3.000000 3.001000 0.100000
$end
