
$comment
	potential surface scanner
$end

$rem
   JOBTYPE  PES_SCAN
   UNRESTRICTED TRUE
   SYM_IGNORE  TRUE
   GEOM_OPT_MAX_CYCLES 400
   SCF_MAX_CYCLES 400
   METHOD   B3LYP
   BASIS   6-31G**
   PDB_PRINT 2
   SCF_CONVERGENCE 6
   THRESH 14
   SCF_PRINT 1
$end
$molecule
0 3
Cl 2.394475 -1.862585 -0.510986
C -0.933173 0.739902 -0.277534
C 0.358014 1.095531 0.379174
C -1.518843 -0.595858 0.201374
H -0.802295 0.720043 -1.368443
H -1.680140 1.535633 -0.097114
H 0.550077 0.806477 1.408261
H 1.048557 1.793372 -0.082666
H -1.675900 -0.586433 1.285889
H -2.483423 -0.800078 -0.274183
H -0.841749 -1.424405 -0.029075
$end
$scan
stre 1 3 3.600000 3.601000 0.100000
$end
