
$comment
	potential surface scanner
$end

$rem
   JOBTYPE  PES_SCAN
   UNRESTRICTED TRUE
   SYM_IGNORE  TRUE
   GEOM_OPT_MAX_CYCLES 400
   SCF_MAX_CYCLES 400
   METHOD   B3LYP
   BASIS   6-31G**
   PDB_PRINT 2
   SCF_CONVERGENCE 6
   THRESH 14
   SCF_PRINT 1
$end
$molecule
0 3
Cl 2.598645 0.122148 -0.880675
C -0.791597 0.464796 -0.314809
C 0.496761 0.480313 0.424624
C -1.794217 -0.533093 0.295068
H -0.607281 0.217643 -1.367539
H -1.246537 1.471319 -0.316261
H 0.545964 0.527110 1.512103
H 1.361879 1.021679 -0.060275
H -2.003644 -0.293083 1.342544
H -2.740833 -0.503692 -0.253033
H -1.403539 -1.553544 0.252945
$end
$scan
stre 1 3 2.400000 2.401000 0.100000
$end
