
$comment
	potential surface scanner
$end

$rem
   JOBTYPE  PES_SCAN
   UNRESTRICTED TRUE
   SYM_IGNORE  TRUE
   GEOM_OPT_MAX_CYCLES 400
   SCF_MAX_CYCLES 400
   METHOD   B3LYP
   BASIS   6-31G**
   PDB_PRINT 2
   SCF_CONVERGENCE 6
   THRESH 14
   SCF_PRINT 1
$end
$molecule
0 1
Cl 2.031139 -0.904353 -0.315088
C -0.841123 0.596917 -0.312526
C 0.443497 0.909025 0.349026
C -1.537141 -0.675581 0.171349
H -0.709261 0.600098 -1.399021
H -1.472865 1.480858 -0.089796
H 0.559598 0.709428 1.409758
H 1.073519 1.693751 -0.055308
H -1.699214 -0.652059 1.254020
H -2.510383 -0.788988 -0.313789
H -0.922162 -1.547496 -0.063921
$end
$scan
stre 1 3 2.600000 2.601000 0.100000
$end
