
$comment
	potential surface scanner
$end

$rem
   JOBTYPE  PES_SCAN
   UNRESTRICTED TRUE
   SYM_IGNORE  TRUE
   GEOM_OPT_MAX_CYCLES 400
   SCF_MAX_CYCLES 400
   METHOD   B3LYP
   BASIS   6-31G**
   PDB_PRINT 2
   SCF_CONVERGENCE 6
   THRESH 14
   SCF_PRINT 1
$end
$molecule
0 3
Cl 2.215334 -1.483389 -0.485605
C -0.895181 0.699373 -0.289171
C 0.405872 1.013447 0.369764
C -1.538692 -0.600729 0.211392
H -0.758634 0.651166 -1.378369
H -1.610819 1.527993 -0.130337
H 0.586281 0.724064 1.400255
H 1.113564 1.695807 -0.089698
H -1.700352 -0.567306 1.294604
H -2.507180 -0.778125 -0.266892
H -0.894591 -1.460703 -0.001252
$end
$scan
stre 1 3 3.100000 3.101000 0.100000
$end
