
$comment
	potential surface scanner
$end

$rem
   JOBTYPE  PES_SCAN
   UNRESTRICTED TRUE
   SYM_IGNORE  TRUE
   GEOM_OPT_MAX_CYCLES 400
   SCF_MAX_CYCLES 400
   METHOD   B3LYP
   BASIS   6-31G**
   PDB_PRINT 2
   SCF_CONVERGENCE 6
   THRESH 14
   SCF_PRINT 1
$end
$molecule
0 3
Cl 2.338290 0.009362 -0.913023
C -0.754775 0.463215 -0.319368
C 0.530593 0.479439 0.429088
C -1.757997 -0.537897 0.281973
H -0.565654 0.221726 -1.372188
H -1.213847 1.468255 -0.316459
H 0.516464 0.557339 1.520340
H 1.362213 1.130782 0.026624
H -1.978875 -0.298635 1.327421
H -2.699682 -0.515664 -0.274558
H -1.361131 -1.556323 0.244843
$end
$scan
stre 1 3 2.200000 2.201000 0.100000
$end
