
$comment
	potential surface scanner
$end

$rem
   JOBTYPE  PES_SCAN
   UNRESTRICTED TRUE
   SYM_IGNORE  TRUE
   GEOM_OPT_MAX_CYCLES 400
   SCF_MAX_CYCLES 400
   METHOD   B3LYP
   BASIS   6-31G**
   PDB_PRINT 2
   SCF_CONVERGENCE 6
   THRESH 14
   SCF_PRINT 1
$end
$molecule
0 1
C 0.121268 0.506795 -0.415162
H 0.113998 0.629602 -1.498541
C 0.365482 1.823090 0.313711
H -0.476777 2.487377 0.082168
H 0.340352 1.652575 1.396042
C 1.674590 2.516831 -0.082561
H 1.760272 3.479253 0.431850
H 2.544944 1.909796 0.179014
H 1.709666 2.711069 -1.160163
Se -1.956916 -0.048946 0.045601
H -1.908902 -1.298185 -0.738623
Se 1.386069 -0.949373 -0.068831
H 1.158156 -0.970988 1.388990
$end
$scan
stre 1 10 2.300000 2.301000 0.100000
$end
