
$comment
	potential surface scanner
$end

$rem
   JOBTYPE  PES_SCAN
   UNRESTRICTED TRUE
   SYM_IGNORE  TRUE
   GEOM_OPT_MAX_CYCLES 400
   SCF_MAX_CYCLES 400
   METHOD   B3LYP
   BASIS   6-31G**
   PDB_PRINT 2
   SCF_CONVERGENCE 6
   THRESH 14
   SCF_PRINT 1
$end
$molecule
0 1
C 0.103194 0.509798 -0.396350
H 0.134383 0.636591 -1.479610
C 0.363360 1.833005 0.324520
H -0.482933 2.498617 0.109075
H 0.361152 1.666168 1.407822
C 1.662431 2.523869 -0.103253
H 1.769999 3.481859 0.415175
H 2.536257 1.909414 0.128462
H 1.666233 2.726513 -1.180069
Se -1.878187 -0.034635 0.036917
H -1.836330 -1.288509 -0.739270
Se 1.398935 -0.936613 -0.036137
H 1.033708 -1.077179 1.386214
$end
$scan
stre 1 10 2.200000 2.201000 0.100000
$end
