
$comment
	potential surface scanner
$end

$rem
   JOBTYPE  PES_SCAN
   UNRESTRICTED TRUE
   SYM_IGNORE  TRUE
   GEOM_OPT_MAX_CYCLES 400
   SCF_MAX_CYCLES 400
   METHOD   B3LYP
   BASIS   6-31G**
   PDB_PRINT 2
   SCF_CONVERGENCE 6
   THRESH 14
   SCF_PRINT 1
$end
$molecule
0 1
C 0.077872 0.509573 -0.383867
H 0.139928 0.639619 -1.466155
C 0.356621 1.839146 0.329463
H -0.488618 2.509959 0.123880
H 0.367594 1.674919 1.413242
C 1.652509 2.522414 -0.115316
H 1.774269 3.478912 0.402622
H 2.525195 1.901769 0.104291
H 1.642478 2.726568 -1.191887
Se -1.803679 -0.020554 0.038900
H -1.781628 -1.271935 -0.742310
Se 1.409541 -0.923418 -0.014279
H 0.960120 -1.138073 1.374915
$end
$scan
stre 1 10 2.100000 2.101000 0.100000
$end
