
$comment
	potential surface scanner
$end

$rem
   JOBTYPE  PES_SCAN
   UNRESTRICTED TRUE
   SYM_IGNORE  TRUE
   GEOM_OPT_MAX_CYCLES 400
   SCF_MAX_CYCLES 400
   METHOD   B3LYP
   BASIS   6-31G**
   PDB_PRINT 2
   SCF_CONVERGENCE 6
   THRESH 14
   SCF_PRINT 1
$end
$molecule
0 1
C 0.183689 0.498877 -0.435212
H 0.121132 0.607551 -1.516631
C 0.384589 1.804556 0.308611
H -0.467493 2.452689 0.073767
H 0.353375 1.622283 1.388403
C 1.688530 2.525582 -0.068122
H 1.746762 3.486443 0.452946
H 2.567147 1.934530 0.202715
H 1.734334 2.725876 -1.143875
Se -2.099903 -0.069015 0.036705
H -2.037958 -1.313630 -0.755205
Se 1.384245 -0.970990 -0.067989
H 1.273751 -0.855855 1.397383
$end
$scan
stre 1 10 2.500000 2.501000 0.100000
$end
