
$comment
	potential surface scanner
$end

$rem
   JOBTYPE  PES_SCAN
   UNRESTRICTED TRUE
   SYM_IGNORE  TRUE
   GEOM_OPT_MAX_CYCLES 400
   SCF_MAX_CYCLES 400
   METHOD   B3LYP
   BASIS   6-31G**
   PDB_PRINT 2
   SCF_CONVERGENCE 6
   THRESH 14
   SCF_PRINT 1
$end
$molecule
0 1
C 0.148842 0.501724 -0.428283
H 0.113598 0.618753 -1.510840
C 0.373576 1.811317 0.310078
H -0.472280 2.469482 0.077529
H 0.343586 1.632677 1.390783
C 1.682105 2.517077 -0.072619
H 1.753964 3.478303 0.446136
H 2.555108 1.916643 0.195434
H 1.725907 2.714962 -1.149034
Se -2.032191 -0.058588 0.039847
H -1.976789 -1.305098 -0.748755
Se 1.379694 -0.962527 -0.071092
H 1.237081 -0.885830 1.394312
$end
$scan
stre 1 10 2.400000 2.401000 0.100000
$end
