
$comment
	potential surface scanner
$end

$rem
   JOBTYPE  PES_SCAN
   UNRESTRICTED TRUE
   SYM_IGNORE  TRUE
   GEOM_OPT_MAX_CYCLES 400
   SCF_MAX_CYCLES 400
   METHOD   B3LYP
   BASIS   6-31G**
   PDB_PRINT 2
   SCF_CONVERGENCE 6
   THRESH 14
   SCF_PRINT 1
$end
$molecule
0 3
C 0.276000 0.482528 -0.454323
H 0.130014 0.559292 -1.528338
C 0.408269 1.780743 0.297935
H -0.455236 2.401769 0.039939
H 0.354741 1.594803 1.375735
C 1.704604 2.543144 -0.042087
H 1.716278 3.500380 0.488423
H 2.593675 1.978120 0.249913
H 1.772910 2.752527 -1.114307
Se -2.317085 -0.097090 0.025206
H -2.251503 -1.333861 -0.782259
Se 1.404075 -0.994124 -0.064977
H 1.495456 -0.719330 1.382641
$end
$scan
stre 1 10 5.700000 5.701000 0.100000
$end
