
$comment
	potential surface scanner
$end

$rem
   JOBTYPE  PES_SCAN
   UNRESTRICTED TRUE
   SYM_IGNORE  TRUE
   GEOM_OPT_MAX_CYCLES 400
   SCF_MAX_CYCLES 400
   METHOD   B3LYP
   BASIS   6-31G**
   PDB_PRINT 2
   SCF_CONVERGENCE 6
   THRESH 14
   SCF_PRINT 1
$end
$molecule
0 1
C 0.048344 0.506832 -0.371071
H 0.148681 0.641917 -1.450727
C 0.348575 1.840415 0.337902
H -0.494571 2.517957 0.144338
H 0.373601 1.676599 1.421541
C 1.640900 2.515503 -0.125867
H 1.776028 3.471971 0.388668
H 2.513069 1.890102 0.082068
H 1.615987 2.718534 -1.202492
Se -1.739831 0.001954 0.025829
H -1.739432 -1.248566 -0.757597
Se 1.412013 -0.917210 0.004384
H 0.928837 -1.167107 1.376524
$end
$scan
stre 1 10 2.000000 2.001000 0.100000
$end
